LAMMPS data file - INV1_AR2.5_s37 - generated by build_structures.py

19843 atoms
1 atom types

0.0 43.448000 xlo xhi
0.0 43.448000 ylo yhi
0.0 260.688000 zlo zhi

Masses

1 28.0855

Atoms  # atomic

1 1 0.000000 2.715500 24.439500
2 1 2.715500 0.000000 24.439500
3 1 1.357750 1.357750 23.081750
4 1 1.357750 4.073250 25.797250
5 1 4.073250 1.357750 25.797250
6 1 4.073250 4.073250 23.081750
7 1 0.000000 0.000000 27.155000
8 1 0.000000 2.715500 29.870500
9 1 2.715500 0.000000 29.870500
10 1 2.715500 2.715500 27.155000
11 1 1.357750 1.357750 28.512750
12 1 1.357750 4.073250 31.228250
13 1 4.073250 1.357750 31.228250
14 1 4.073250 4.073250 28.512750
15 1 0.000000 0.000000 32.586000
16 1 0.000000 2.715500 35.301500
17 1 2.715500 0.000000 35.301500
18 1 2.715500 2.715500 32.586000
19 1 1.357750 1.357750 33.943750
20 1 1.357750 4.073250 36.659250
21 1 4.073250 1.357750 36.659250
22 1 4.073250 4.073250 33.943750
23 1 0.000000 0.000000 38.017000
24 1 0.000000 2.715500 40.732500
25 1 2.715500 0.000000 40.732500
26 1 2.715500 2.715500 38.017000
27 1 1.357750 1.357750 39.374750
28 1 1.357750 4.073250 42.090250
29 1 4.073250 1.357750 42.090250
30 1 4.073250 4.073250 39.374750
31 1 0.000000 2.715500 67.887500
32 1 2.715500 0.000000 67.887500
33 1 1.357750 1.357750 66.529750
34 1 1.357750 4.073250 69.245250
35 1 4.073250 1.357750 69.245250
36 1 4.073250 4.073250 66.529750
37 1 0.000000 0.000000 70.603000
38 1 0.000000 2.715500 73.318500
39 1 2.715500 0.000000 73.318500
40 1 2.715500 2.715500 70.603000
41 1 1.357750 1.357750 71.960750
42 1 1.357750 4.073250 74.676250
43 1 4.073250 1.357750 74.676250
44 1 4.073250 4.073250 71.960750
45 1 0.000000 0.000000 76.034000
46 1 0.000000 2.715500 78.749500
47 1 2.715500 0.000000 78.749500
48 1 2.715500 2.715500 76.034000
49 1 1.357750 1.357750 77.391750
50 1 1.357750 4.073250 80.107250
51 1 4.073250 1.357750 80.107250
52 1 4.073250 4.073250 77.391750
53 1 0.000000 0.000000 81.465000
54 1 0.000000 2.715500 84.180500
55 1 2.715500 0.000000 84.180500
56 1 2.715500 2.715500 81.465000
57 1 1.357750 1.357750 82.822750
58 1 1.357750 4.073250 85.538250
59 1 4.073250 1.357750 85.538250
60 1 4.073250 4.073250 82.822750
61 1 0.000000 2.715500 111.335500
62 1 2.715500 0.000000 111.335500
63 1 1.357750 1.357750 109.977750
64 1 1.357750 4.073250 112.693250
65 1 4.073250 1.357750 112.693250
66 1 4.073250 4.073250 109.977750
67 1 0.000000 0.000000 114.051000
68 1 0.000000 2.715500 116.766500
69 1 2.715500 0.000000 116.766500
70 1 2.715500 2.715500 114.051000
71 1 1.357750 1.357750 115.408750
72 1 1.357750 4.073250 118.124250
73 1 4.073250 1.357750 118.124250
74 1 4.073250 4.073250 115.408750
75 1 0.000000 0.000000 119.482000
76 1 0.000000 2.715500 122.197500
77 1 2.715500 0.000000 122.197500
78 1 2.715500 2.715500 119.482000
79 1 1.357750 1.357750 120.839750
80 1 1.357750 4.073250 123.555250
81 1 4.073250 1.357750 123.555250
82 1 4.073250 4.073250 120.839750
83 1 0.000000 0.000000 124.913000
84 1 0.000000 2.715500 127.628500
85 1 2.715500 0.000000 127.628500
86 1 2.715500 2.715500 124.913000
87 1 1.357750 1.357750 126.270750
88 1 1.357750 4.073250 128.986250
89 1 4.073250 1.357750 128.986250
90 1 4.073250 4.073250 126.270750
91 1 0.000000 2.715500 154.783500
92 1 2.715500 0.000000 154.783500
93 1 1.357750 1.357750 153.425750
94 1 1.357750 4.073250 156.141250
95 1 4.073250 1.357750 156.141250
96 1 4.073250 4.073250 153.425750
97 1 0.000000 0.000000 157.499000
98 1 0.000000 2.715500 160.214500
99 1 2.715500 0.000000 160.214500
100 1 2.715500 2.715500 157.499000
101 1 1.357750 1.357750 158.856750
102 1 1.357750 4.073250 161.572250
103 1 4.073250 1.357750 161.572250
104 1 4.073250 4.073250 158.856750
105 1 0.000000 0.000000 162.930000
106 1 0.000000 2.715500 165.645500
107 1 2.715500 0.000000 165.645500
108 1 2.715500 2.715500 162.930000
109 1 1.357750 1.357750 164.287750
110 1 1.357750 4.073250 167.003250
111 1 4.073250 1.357750 167.003250
112 1 4.073250 4.073250 164.287750
113 1 0.000000 0.000000 168.361000
114 1 0.000000 2.715500 171.076500
115 1 2.715500 0.000000 171.076500
116 1 2.715500 2.715500 168.361000
117 1 1.357750 1.357750 169.718750
118 1 1.357750 4.073250 172.434250
119 1 4.073250 1.357750 172.434250
120 1 4.073250 4.073250 169.718750
121 1 0.000000 2.715500 198.231500
122 1 2.715500 0.000000 198.231500
123 1 1.357750 1.357750 196.873750
124 1 1.357750 4.073250 199.589250
125 1 4.073250 1.357750 199.589250
126 1 4.073250 4.073250 196.873750
127 1 0.000000 0.000000 200.947000
128 1 0.000000 2.715500 203.662500
129 1 2.715500 0.000000 203.662500
130 1 2.715500 2.715500 200.947000
131 1 1.357750 1.357750 202.304750
132 1 1.357750 4.073250 205.020250
133 1 4.073250 1.357750 205.020250
134 1 4.073250 4.073250 202.304750
135 1 0.000000 0.000000 206.378000
136 1 0.000000 2.715500 209.093500
137 1 2.715500 0.000000 209.093500
138 1 2.715500 2.715500 206.378000
139 1 1.357750 1.357750 207.735750
140 1 1.357750 4.073250 210.451250
141 1 4.073250 1.357750 210.451250
142 1 4.073250 4.073250 207.735750
143 1 0.000000 0.000000 211.809000
144 1 0.000000 2.715500 214.524500
145 1 2.715500 0.000000 214.524500
146 1 2.715500 2.715500 211.809000
147 1 1.357750 1.357750 213.166750
148 1 1.357750 4.073250 215.882250
149 1 4.073250 1.357750 215.882250
150 1 4.073250 4.073250 213.166750
151 1 0.000000 2.715500 241.679500
152 1 2.715500 0.000000 241.679500
153 1 1.357750 1.357750 240.321750
154 1 1.357750 4.073250 243.037250
155 1 4.073250 1.357750 243.037250
156 1 4.073250 4.073250 240.321750
157 1 0.000000 0.000000 244.395000
158 1 0.000000 2.715500 247.110500
159 1 2.715500 0.000000 247.110500
160 1 2.715500 2.715500 244.395000
161 1 1.357750 1.357750 245.752750
162 1 1.357750 4.073250 248.468250
163 1 4.073250 1.357750 248.468250
164 1 4.073250 4.073250 245.752750
165 1 0.000000 0.000000 249.826000
166 1 0.000000 2.715500 252.541500
167 1 2.715500 0.000000 252.541500
168 1 2.715500 2.715500 249.826000
169 1 1.357750 1.357750 251.183750
170 1 1.357750 4.073250 253.899250
171 1 4.073250 1.357750 253.899250
172 1 4.073250 4.073250 251.183750
173 1 0.000000 0.000000 255.257000
174 1 0.000000 2.715500 257.972500
175 1 2.715500 0.000000 257.972500
176 1 2.715500 2.715500 255.257000
177 1 1.357750 1.357750 256.614750
178 1 1.357750 4.073250 259.330250
179 1 4.073250 1.357750 259.330250
180 1 4.073250 4.073250 256.614750
181 1 0.000000 8.146500 24.439500
182 1 2.715500 5.431000 24.439500
183 1 1.357750 6.788750 23.081750
184 1 1.357750 9.504250 25.797250
185 1 4.073250 6.788750 25.797250
186 1 4.073250 9.504250 23.081750
187 1 0.000000 5.431000 27.155000
188 1 0.000000 8.146500 29.870500
189 1 2.715500 5.431000 29.870500
190 1 2.715500 8.146500 27.155000
191 1 1.357750 6.788750 28.512750
192 1 1.357750 9.504250 31.228250
193 1 4.073250 6.788750 31.228250
194 1 4.073250 9.504250 28.512750
195 1 0.000000 5.431000 32.586000
196 1 0.000000 8.146500 35.301500
197 1 2.715500 5.431000 35.301500
198 1 2.715500 8.146500 32.586000
199 1 1.357750 6.788750 33.943750
200 1 1.357750 9.504250 36.659250
201 1 4.073250 6.788750 36.659250
202 1 4.073250 9.504250 33.943750
203 1 0.000000 5.431000 38.017000
204 1 0.000000 8.146500 40.732500
205 1 2.715500 5.431000 40.732500
206 1 2.715500 8.146500 38.017000
207 1 1.357750 6.788750 39.374750
208 1 1.357750 9.504250 42.090250
209 1 4.073250 6.788750 42.090250
210 1 4.073250 9.504250 39.374750
211 1 0.000000 8.146500 67.887500
212 1 2.715500 5.431000 67.887500
213 1 1.357750 6.788750 66.529750
214 1 1.357750 9.504250 69.245250
215 1 4.073250 6.788750 69.245250
216 1 4.073250 9.504250 66.529750
217 1 0.000000 5.431000 70.603000
218 1 0.000000 8.146500 73.318500
219 1 2.715500 5.431000 73.318500
220 1 2.715500 8.146500 70.603000
221 1 1.357750 6.788750 71.960750
222 1 1.357750 9.504250 74.676250
223 1 4.073250 6.788750 74.676250
224 1 4.073250 9.504250 71.960750
225 1 0.000000 5.431000 76.034000
226 1 0.000000 8.146500 78.749500
227 1 2.715500 5.431000 78.749500
228 1 2.715500 8.146500 76.034000
229 1 1.357750 6.788750 77.391750
230 1 1.357750 9.504250 80.107250
231 1 4.073250 6.788750 80.107250
232 1 4.073250 9.504250 77.391750
233 1 0.000000 5.431000 81.465000
234 1 0.000000 8.146500 84.180500
235 1 2.715500 5.431000 84.180500
236 1 2.715500 8.146500 81.465000
237 1 1.357750 6.788750 82.822750
238 1 1.357750 9.504250 85.538250
239 1 4.073250 6.788750 85.538250
240 1 4.073250 9.504250 82.822750
241 1 0.000000 8.146500 111.335500
242 1 2.715500 5.431000 111.335500
243 1 1.357750 6.788750 109.977750
244 1 1.357750 9.504250 112.693250
245 1 4.073250 6.788750 112.693250
246 1 4.073250 9.504250 109.977750
247 1 0.000000 5.431000 114.051000
248 1 0.000000 8.146500 116.766500
249 1 2.715500 5.431000 116.766500
250 1 2.715500 8.146500 114.051000
251 1 1.357750 6.788750 115.408750
252 1 1.357750 9.504250 118.124250
253 1 4.073250 6.788750 118.124250
254 1 4.073250 9.504250 115.408750
255 1 0.000000 5.431000 119.482000
256 1 0.000000 8.146500 122.197500
257 1 2.715500 5.431000 122.197500
258 1 2.715500 8.146500 119.482000
259 1 1.357750 6.788750 120.839750
260 1 1.357750 9.504250 123.555250
261 1 4.073250 6.788750 123.555250
262 1 4.073250 9.504250 120.839750
263 1 0.000000 5.431000 124.913000
264 1 0.000000 8.146500 127.628500
265 1 2.715500 5.431000 127.628500
266 1 2.715500 8.146500 124.913000
267 1 1.357750 6.788750 126.270750
268 1 1.357750 9.504250 128.986250
269 1 4.073250 6.788750 128.986250
270 1 4.073250 9.504250 126.270750
271 1 0.000000 8.146500 154.783500
272 1 2.715500 5.431000 154.783500
273 1 1.357750 6.788750 153.425750
274 1 1.357750 9.504250 156.141250
275 1 4.073250 6.788750 156.141250
276 1 4.073250 9.504250 153.425750
277 1 0.000000 5.431000 157.499000
278 1 0.000000 8.146500 160.214500
279 1 2.715500 5.431000 160.214500
280 1 2.715500 8.146500 157.499000
281 1 1.357750 6.788750 158.856750
282 1 1.357750 9.504250 161.572250
283 1 4.073250 6.788750 161.572250
284 1 4.073250 9.504250 158.856750
285 1 0.000000 5.431000 162.930000
286 1 0.000000 8.146500 165.645500
287 1 2.715500 5.431000 165.645500
288 1 2.715500 8.146500 162.930000
289 1 1.357750 6.788750 164.287750
290 1 1.357750 9.504250 167.003250
291 1 4.073250 6.788750 167.003250
292 1 4.073250 9.504250 164.287750
293 1 0.000000 5.431000 168.361000
294 1 0.000000 8.146500 171.076500
295 1 2.715500 5.431000 171.076500
296 1 2.715500 8.146500 168.361000
297 1 1.357750 6.788750 169.718750
298 1 1.357750 9.504250 172.434250
299 1 4.073250 6.788750 172.434250
300 1 4.073250 9.504250 169.718750
301 1 0.000000 8.146500 198.231500
302 1 2.715500 5.431000 198.231500
303 1 1.357750 6.788750 196.873750
304 1 1.357750 9.504250 199.589250
305 1 4.073250 6.788750 199.589250
306 1 4.073250 9.504250 196.873750
307 1 0.000000 5.431000 200.947000
308 1 0.000000 8.146500 203.662500
309 1 2.715500 5.431000 203.662500
310 1 2.715500 8.146500 200.947000
311 1 1.357750 6.788750 202.304750
312 1 1.357750 9.504250 205.020250
313 1 4.073250 6.788750 205.020250
314 1 4.073250 9.504250 202.304750
315 1 0.000000 5.431000 206.378000
316 1 0.000000 8.146500 209.093500
317 1 2.715500 5.431000 209.093500
318 1 2.715500 8.146500 206.378000
319 1 1.357750 6.788750 207.735750
320 1 1.357750 9.504250 210.451250
321 1 4.073250 6.788750 210.451250
322 1 4.073250 9.504250 207.735750
323 1 0.000000 5.431000 211.809000
324 1 0.000000 8.146500 214.524500
325 1 2.715500 5.431000 214.524500
326 1 2.715500 8.146500 211.809000
327 1 1.357750 6.788750 213.166750
328 1 1.357750 9.504250 215.882250
329 1 4.073250 6.788750 215.882250
330 1 4.073250 9.504250 213.166750
331 1 0.000000 8.146500 241.679500
332 1 2.715500 5.431000 241.679500
333 1 1.357750 6.788750 240.321750
334 1 1.357750 9.504250 243.037250
335 1 4.073250 6.788750 243.037250
336 1 4.073250 9.504250 240.321750
337 1 0.000000 5.431000 244.395000
338 1 0.000000 8.146500 247.110500
339 1 2.715500 5.431000 247.110500
340 1 2.715500 8.146500 244.395000
341 1 1.357750 6.788750 245.752750
342 1 1.357750 9.504250 248.468250
343 1 4.073250 6.788750 248.468250
344 1 4.073250 9.504250 245.752750
345 1 0.000000 5.431000 249.826000
346 1 0.000000 8.146500 252.541500
347 1 2.715500 5.431000 252.541500
348 1 2.715500 8.146500 249.826000
349 1 1.357750 6.788750 251.183750
350 1 1.357750 9.504250 253.899250
351 1 4.073250 6.788750 253.899250
352 1 4.073250 9.504250 251.183750
353 1 0.000000 5.431000 255.257000
354 1 0.000000 8.146500 257.972500
355 1 2.715500 5.431000 257.972500
356 1 2.715500 8.146500 255.257000
357 1 1.357750 6.788750 256.614750
358 1 1.357750 9.504250 259.330250
359 1 4.073250 6.788750 259.330250
360 1 4.073250 9.504250 256.614750
361 1 0.000000 13.577500 2.715500
362 1 2.715500 13.577500 0.000000
363 1 1.357750 12.219750 1.357750
364 1 1.357750 14.935250 4.073250
365 1 4.073250 12.219750 4.073250
366 1 4.073250 14.935250 1.357750
367 1 0.000000 13.577500 8.146500
368 1 2.715500 13.577500 5.431000
369 1 1.357750 12.219750 6.788750
370 1 1.357750 14.935250 9.504250
371 1 4.073250 12.219750 9.504250
372 1 4.073250 14.935250 6.788750
373 1 0.000000 13.577500 13.577500
374 1 2.715500 13.577500 10.862000
375 1 1.357750 12.219750 12.219750
376 1 1.357750 14.935250 14.935250
377 1 4.073250 12.219750 14.935250
378 1 4.073250 14.935250 12.219750
379 1 0.000000 13.577500 19.008500
380 1 2.715500 13.577500 16.293000
381 1 1.357750 12.219750 17.650750
382 1 1.357750 14.935250 20.366250
383 1 4.073250 12.219750 20.366250
384 1 4.073250 14.935250 17.650750
385 1 0.000000 13.577500 24.439500
386 1 2.715500 10.862000 24.439500
387 1 2.715500 13.577500 21.724000
388 1 1.357750 12.219750 23.081750
389 1 1.357750 14.935250 25.797250
390 1 4.073250 12.219750 25.797250
391 1 4.073250 14.935250 23.081750
392 1 0.000000 10.862000 27.155000
393 1 0.000000 13.577500 29.870500
394 1 2.715500 10.862000 29.870500
395 1 2.715500 13.577500 27.155000
396 1 1.357750 12.219750 28.512750
397 1 1.357750 14.935250 31.228250
398 1 4.073250 12.219750 31.228250
399 1 4.073250 14.935250 28.512750
400 1 0.000000 10.862000 32.586000
401 1 0.000000 13.577500 35.301500
402 1 2.715500 10.862000 35.301500
403 1 2.715500 13.577500 32.586000
404 1 1.357750 12.219750 33.943750
405 1 1.357750 14.935250 36.659250
406 1 4.073250 12.219750 36.659250
407 1 4.073250 14.935250 33.943750
408 1 0.000000 10.862000 38.017000
409 1 0.000000 13.577500 40.732500
410 1 2.715500 10.862000 40.732500
411 1 2.715500 13.577500 38.017000
412 1 1.357750 12.219750 39.374750
413 1 1.357750 14.935250 42.090250
414 1 4.073250 12.219750 42.090250
415 1 4.073250 14.935250 39.374750
416 1 0.000000 13.577500 46.163500
417 1 2.715500 13.577500 43.448000
418 1 1.357750 12.219750 44.805750
419 1 1.357750 14.935250 47.521250
420 1 4.073250 12.219750 47.521250
421 1 4.073250 14.935250 44.805750
422 1 0.000000 13.577500 51.594500
423 1 2.715500 13.577500 48.879000
424 1 1.357750 12.219750 50.236750
425 1 1.357750 14.935250 52.952250
426 1 4.073250 12.219750 52.952250
427 1 4.073250 14.935250 50.236750
428 1 0.000000 13.577500 57.025500
429 1 2.715500 13.577500 54.310000
430 1 1.357750 12.219750 55.667750
431 1 1.357750 14.935250 58.383250
432 1 4.073250 12.219750 58.383250
433 1 4.073250 14.935250 55.667750
434 1 0.000000 13.577500 62.456500
435 1 2.715500 13.577500 59.741000
436 1 1.357750 12.219750 61.098750
437 1 1.357750 14.935250 63.814250
438 1 4.073250 12.219750 63.814250
439 1 4.073250 14.935250 61.098750
440 1 0.000000 13.577500 67.887500
441 1 2.715500 10.862000 67.887500
442 1 2.715500 13.577500 65.172000
443 1 1.357750 12.219750 66.529750
444 1 1.357750 14.935250 69.245250
445 1 4.073250 12.219750 69.245250
446 1 4.073250 14.935250 66.529750
447 1 0.000000 10.862000 70.603000
448 1 0.000000 13.577500 73.318500
449 1 2.715500 10.862000 73.318500
450 1 2.715500 13.577500 70.603000
451 1 1.357750 12.219750 71.960750
452 1 1.357750 14.935250 74.676250
453 1 4.073250 12.219750 74.676250
454 1 4.073250 14.935250 71.960750
455 1 0.000000 10.862000 76.034000
456 1 0.000000 13.577500 78.749500
457 1 2.715500 10.862000 78.749500
458 1 2.715500 13.577500 76.034000
459 1 1.357750 12.219750 77.391750
460 1 1.357750 14.935250 80.107250
461 1 4.073250 12.219750 80.107250
462 1 4.073250 14.935250 77.391750
463 1 0.000000 10.862000 81.465000
464 1 0.000000 13.577500 84.180500
465 1 2.715500 10.862000 84.180500
466 1 2.715500 13.577500 81.465000
467 1 1.357750 12.219750 82.822750
468 1 1.357750 14.935250 85.538250
469 1 4.073250 12.219750 85.538250
470 1 4.073250 14.935250 82.822750
471 1 0.000000 13.577500 89.611500
472 1 2.715500 13.577500 86.896000
473 1 1.357750 12.219750 88.253750
474 1 1.357750 14.935250 90.969250
475 1 4.073250 12.219750 90.969250
476 1 4.073250 14.935250 88.253750
477 1 0.000000 13.577500 95.042500
478 1 2.715500 13.577500 92.327000
479 1 1.357750 12.219750 93.684750
480 1 1.357750 14.935250 96.400250
481 1 4.073250 12.219750 96.400250
482 1 4.073250 14.935250 93.684750
483 1 0.000000 13.577500 100.473500
484 1 2.715500 13.577500 97.758000
485 1 1.357750 12.219750 99.115750
486 1 1.357750 14.935250 101.831250
487 1 4.073250 12.219750 101.831250
488 1 4.073250 14.935250 99.115750
489 1 0.000000 13.577500 105.904500
490 1 2.715500 13.577500 103.189000
491 1 1.357750 12.219750 104.546750
492 1 1.357750 14.935250 107.262250
493 1 4.073250 12.219750 107.262250
494 1 4.073250 14.935250 104.546750
495 1 0.000000 13.577500 111.335500
496 1 2.715500 10.862000 111.335500
497 1 2.715500 13.577500 108.620000
498 1 1.357750 12.219750 109.977750
499 1 1.357750 14.935250 112.693250
500 1 4.073250 12.219750 112.693250
501 1 4.073250 14.935250 109.977750
502 1 0.000000 10.862000 114.051000
503 1 0.000000 13.577500 116.766500
504 1 2.715500 10.862000 116.766500
505 1 2.715500 13.577500 114.051000
506 1 1.357750 12.219750 115.408750
507 1 1.357750 14.935250 118.124250
508 1 4.073250 12.219750 118.124250
509 1 4.073250 14.935250 115.408750
510 1 0.000000 10.862000 119.482000
511 1 0.000000 13.577500 122.197500
512 1 2.715500 10.862000 122.197500
513 1 2.715500 13.577500 119.482000
514 1 1.357750 12.219750 120.839750
515 1 1.357750 14.935250 123.555250
516 1 4.073250 12.219750 123.555250
517 1 4.073250 14.935250 120.839750
518 1 0.000000 10.862000 124.913000
519 1 0.000000 13.577500 127.628500
520 1 2.715500 10.862000 127.628500
521 1 2.715500 13.577500 124.913000
522 1 1.357750 12.219750 126.270750
523 1 1.357750 14.935250 128.986250
524 1 4.073250 12.219750 128.986250
525 1 4.073250 14.935250 126.270750
526 1 0.000000 13.577500 133.059500
527 1 2.715500 13.577500 130.344000
528 1 1.357750 12.219750 131.701750
529 1 1.357750 14.935250 134.417250
530 1 4.073250 12.219750 134.417250
531 1 4.073250 14.935250 131.701750
532 1 0.000000 13.577500 138.490500
533 1 2.715500 13.577500 135.775000
534 1 1.357750 12.219750 137.132750
535 1 1.357750 14.935250 139.848250
536 1 4.073250 12.219750 139.848250
537 1 4.073250 14.935250 137.132750
538 1 0.000000 13.577500 143.921500
539 1 2.715500 13.577500 141.206000
540 1 1.357750 12.219750 142.563750
541 1 1.357750 14.935250 145.279250
542 1 4.073250 12.219750 145.279250
543 1 4.073250 14.935250 142.563750
544 1 0.000000 13.577500 149.352500
545 1 2.715500 13.577500 146.637000
546 1 1.357750 12.219750 147.994750
547 1 1.357750 14.935250 150.710250
548 1 4.073250 12.219750 150.710250
549 1 4.073250 14.935250 147.994750
550 1 0.000000 13.577500 154.783500
551 1 2.715500 10.862000 154.783500
552 1 2.715500 13.577500 152.068000
553 1 1.357750 12.219750 153.425750
554 1 1.357750 14.935250 156.141250
555 1 4.073250 12.219750 156.141250
556 1 4.073250 14.935250 153.425750
557 1 0.000000 10.862000 157.499000
558 1 0.000000 13.577500 160.214500
559 1 2.715500 10.862000 160.214500
560 1 2.715500 13.577500 157.499000
561 1 1.357750 12.219750 158.856750
562 1 1.357750 14.935250 161.572250
563 1 4.073250 12.219750 161.572250
564 1 4.073250 14.935250 158.856750
565 1 0.000000 10.862000 162.930000
566 1 0.000000 13.577500 165.645500
567 1 2.715500 10.862000 165.645500
568 1 2.715500 13.577500 162.930000
569 1 1.357750 12.219750 164.287750
570 1 1.357750 14.935250 167.003250
571 1 4.073250 12.219750 167.003250
572 1 4.073250 14.935250 164.287750
573 1 0.000000 10.862000 168.361000
574 1 0.000000 13.577500 171.076500
575 1 2.715500 10.862000 171.076500
576 1 2.715500 13.577500 168.361000
577 1 1.357750 12.219750 169.718750
578 1 1.357750 14.935250 172.434250
579 1 4.073250 12.219750 172.434250
580 1 4.073250 14.935250 169.718750
581 1 0.000000 13.577500 176.507500
582 1 2.715500 13.577500 173.792000
583 1 1.357750 12.219750 175.149750
584 1 1.357750 14.935250 177.865250
585 1 4.073250 12.219750 177.865250
586 1 4.073250 14.935250 175.149750
587 1 0.000000 13.577500 181.938500
588 1 2.715500 13.577500 179.223000
589 1 1.357750 12.219750 180.580750
590 1 1.357750 14.935250 183.296250
591 1 4.073250 12.219750 183.296250
592 1 4.073250 14.935250 180.580750
593 1 0.000000 13.577500 187.369500
594 1 2.715500 13.577500 184.654000
595 1 1.357750 12.219750 186.011750
596 1 1.357750 14.935250 188.727250
597 1 4.073250 12.219750 188.727250
598 1 4.073250 14.935250 186.011750
599 1 0.000000 13.577500 192.800500
600 1 2.715500 13.577500 190.085000
601 1 1.357750 12.219750 191.442750
602 1 1.357750 14.935250 194.158250
603 1 4.073250 12.219750 194.158250
604 1 4.073250 14.935250 191.442750
605 1 0.000000 13.577500 198.231500
606 1 2.715500 10.862000 198.231500
607 1 2.715500 13.577500 195.516000
608 1 1.357750 12.219750 196.873750
609 1 1.357750 14.935250 199.589250
610 1 4.073250 12.219750 199.589250
611 1 4.073250 14.935250 196.873750
612 1 0.000000 10.862000 200.947000
613 1 0.000000 13.577500 203.662500
614 1 2.715500 10.862000 203.662500
615 1 2.715500 13.577500 200.947000
616 1 1.357750 12.219750 202.304750
617 1 1.357750 14.935250 205.020250
618 1 4.073250 12.219750 205.020250
619 1 4.073250 14.935250 202.304750
620 1 0.000000 10.862000 206.378000
621 1 0.000000 13.577500 209.093500
622 1 2.715500 10.862000 209.093500
623 1 2.715500 13.577500 206.378000
624 1 1.357750 12.219750 207.735750
625 1 1.357750 14.935250 210.451250
626 1 4.073250 12.219750 210.451250
627 1 4.073250 14.935250 207.735750
628 1 0.000000 10.862000 211.809000
629 1 0.000000 13.577500 214.524500
630 1 2.715500 10.862000 214.524500
631 1 2.715500 13.577500 211.809000
632 1 1.357750 12.219750 213.166750
633 1 1.357750 14.935250 215.882250
634 1 4.073250 12.219750 215.882250
635 1 4.073250 14.935250 213.166750
636 1 0.000000 13.577500 219.955500
637 1 2.715500 13.577500 217.240000
638 1 1.357750 12.219750 218.597750
639 1 1.357750 14.935250 221.313250
640 1 4.073250 12.219750 221.313250
641 1 4.073250 14.935250 218.597750
642 1 0.000000 13.577500 225.386500
643 1 2.715500 13.577500 222.671000
644 1 1.357750 12.219750 224.028750
645 1 1.357750 14.935250 226.744250
646 1 4.073250 12.219750 226.744250
647 1 4.073250 14.935250 224.028750
648 1 0.000000 13.577500 230.817500
649 1 2.715500 13.577500 228.102000
650 1 1.357750 12.219750 229.459750
651 1 1.357750 14.935250 232.175250
652 1 4.073250 12.219750 232.175250
653 1 4.073250 14.935250 229.459750
654 1 0.000000 13.577500 236.248500
655 1 2.715500 13.577500 233.533000
656 1 1.357750 12.219750 234.890750
657 1 1.357750 14.935250 237.606250
658 1 4.073250 12.219750 237.606250
659 1 4.073250 14.935250 234.890750
660 1 0.000000 13.577500 241.679500
661 1 2.715500 10.862000 241.679500
662 1 2.715500 13.577500 238.964000
663 1 1.357750 12.219750 240.321750
664 1 1.357750 14.935250 243.037250
665 1 4.073250 12.219750 243.037250
666 1 4.073250 14.935250 240.321750
667 1 0.000000 10.862000 244.395000
668 1 0.000000 13.577500 247.110500
669 1 2.715500 10.862000 247.110500
670 1 2.715500 13.577500 244.395000
671 1 1.357750 12.219750 245.752750
672 1 1.357750 14.935250 248.468250
673 1 4.073250 12.219750 248.468250
674 1 4.073250 14.935250 245.752750
675 1 0.000000 10.862000 249.826000
676 1 0.000000 13.577500 252.541500
677 1 2.715500 10.862000 252.541500
678 1 2.715500 13.577500 249.826000
679 1 1.357750 12.219750 251.183750
680 1 1.357750 14.935250 253.899250
681 1 4.073250 12.219750 253.899250
682 1 4.073250 14.935250 251.183750
683 1 0.000000 10.862000 255.257000
684 1 0.000000 13.577500 257.972500
685 1 2.715500 10.862000 257.972500
686 1 2.715500 13.577500 255.257000
687 1 1.357750 12.219750 256.614750
688 1 1.357750 14.935250 259.330250
689 1 4.073250 12.219750 259.330250
690 1 4.073250 14.935250 256.614750
691 1 0.000000 16.293000 0.000000
692 1 0.000000 19.008500 2.715500
693 1 2.715500 16.293000 2.715500
694 1 2.715500 19.008500 0.000000
695 1 1.357750 17.650750 1.357750
696 1 1.357750 20.366250 4.073250
697 1 4.073250 17.650750 4.073250
698 1 4.073250 20.366250 1.357750
699 1 0.000000 16.293000 5.431000
700 1 0.000000 19.008500 8.146500
701 1 2.715500 16.293000 8.146500
702 1 2.715500 19.008500 5.431000
703 1 1.357750 17.650750 6.788750
704 1 1.357750 20.366250 9.504250
705 1 4.073250 17.650750 9.504250
706 1 4.073250 20.366250 6.788750
707 1 0.000000 16.293000 10.862000
708 1 0.000000 19.008500 13.577500
709 1 2.715500 16.293000 13.577500
710 1 2.715500 19.008500 10.862000
711 1 1.357750 17.650750 12.219750
712 1 1.357750 20.366250 14.935250
713 1 4.073250 17.650750 14.935250
714 1 4.073250 20.366250 12.219750
715 1 0.000000 16.293000 16.293000
716 1 0.000000 19.008500 19.008500
717 1 2.715500 16.293000 19.008500
718 1 2.715500 19.008500 16.293000
719 1 1.357750 17.650750 17.650750
720 1 1.357750 20.366250 20.366250
721 1 4.073250 17.650750 20.366250
722 1 4.073250 20.366250 17.650750
723 1 0.000000 16.293000 21.724000
724 1 0.000000 19.008500 24.439500
725 1 2.715500 16.293000 24.439500
726 1 2.715500 19.008500 21.724000
727 1 1.357750 17.650750 23.081750
728 1 1.357750 20.366250 25.797250
729 1 4.073250 17.650750 25.797250
730 1 4.073250 20.366250 23.081750
731 1 0.000000 16.293000 27.155000
732 1 0.000000 19.008500 29.870500
733 1 2.715500 16.293000 29.870500
734 1 2.715500 19.008500 27.155000
735 1 1.357750 17.650750 28.512750
736 1 1.357750 20.366250 31.228250
737 1 4.073250 17.650750 31.228250
738 1 4.073250 20.366250 28.512750
739 1 0.000000 16.293000 32.586000
740 1 0.000000 19.008500 35.301500
741 1 2.715500 16.293000 35.301500
742 1 2.715500 19.008500 32.586000
743 1 1.357750 17.650750 33.943750
744 1 1.357750 20.366250 36.659250
745 1 4.073250 17.650750 36.659250
746 1 4.073250 20.366250 33.943750
747 1 0.000000 16.293000 38.017000
748 1 0.000000 19.008500 40.732500
749 1 2.715500 16.293000 40.732500
750 1 2.715500 19.008500 38.017000
751 1 1.357750 17.650750 39.374750
752 1 1.357750 20.366250 42.090250
753 1 4.073250 17.650750 42.090250
754 1 4.073250 20.366250 39.374750
755 1 0.000000 16.293000 43.448000
756 1 0.000000 19.008500 46.163500
757 1 2.715500 16.293000 46.163500
758 1 2.715500 19.008500 43.448000
759 1 1.357750 17.650750 44.805750
760 1 1.357750 20.366250 47.521250
761 1 4.073250 17.650750 47.521250
762 1 4.073250 20.366250 44.805750
763 1 0.000000 16.293000 48.879000
764 1 0.000000 19.008500 51.594500
765 1 2.715500 16.293000 51.594500
766 1 2.715500 19.008500 48.879000
767 1 1.357750 17.650750 50.236750
768 1 1.357750 20.366250 52.952250
769 1 4.073250 17.650750 52.952250
770 1 4.073250 20.366250 50.236750
771 1 0.000000 16.293000 54.310000
772 1 0.000000 19.008500 57.025500
773 1 2.715500 16.293000 57.025500
774 1 2.715500 19.008500 54.310000
775 1 1.357750 17.650750 55.667750
776 1 1.357750 20.366250 58.383250
777 1 4.073250 17.650750 58.383250
778 1 4.073250 20.366250 55.667750
779 1 0.000000 16.293000 59.741000
780 1 0.000000 19.008500 62.456500
781 1 2.715500 16.293000 62.456500
782 1 2.715500 19.008500 59.741000
783 1 1.357750 17.650750 61.098750
784 1 1.357750 20.366250 63.814250
785 1 4.073250 17.650750 63.814250
786 1 4.073250 20.366250 61.098750
787 1 0.000000 16.293000 65.172000
788 1 0.000000 19.008500 67.887500
789 1 2.715500 16.293000 67.887500
790 1 2.715500 19.008500 65.172000
791 1 1.357750 17.650750 66.529750
792 1 1.357750 20.366250 69.245250
793 1 4.073250 17.650750 69.245250
794 1 4.073250 20.366250 66.529750
795 1 0.000000 16.293000 70.603000
796 1 0.000000 19.008500 73.318500
797 1 2.715500 16.293000 73.318500
798 1 2.715500 19.008500 70.603000
799 1 1.357750 17.650750 71.960750
800 1 1.357750 20.366250 74.676250
801 1 4.073250 17.650750 74.676250
802 1 4.073250 20.366250 71.960750
803 1 0.000000 16.293000 76.034000
804 1 0.000000 19.008500 78.749500
805 1 2.715500 16.293000 78.749500
806 1 2.715500 19.008500 76.034000
807 1 1.357750 17.650750 77.391750
808 1 1.357750 20.366250 80.107250
809 1 4.073250 17.650750 80.107250
810 1 4.073250 20.366250 77.391750
811 1 0.000000 16.293000 81.465000
812 1 0.000000 19.008500 84.180500
813 1 2.715500 16.293000 84.180500
814 1 2.715500 19.008500 81.465000
815 1 1.357750 17.650750 82.822750
816 1 1.357750 20.366250 85.538250
817 1 4.073250 17.650750 85.538250
818 1 4.073250 20.366250 82.822750
819 1 0.000000 16.293000 86.896000
820 1 0.000000 19.008500 89.611500
821 1 2.715500 16.293000 89.611500
822 1 2.715500 19.008500 86.896000
823 1 1.357750 17.650750 88.253750
824 1 1.357750 20.366250 90.969250
825 1 4.073250 17.650750 90.969250
826 1 4.073250 20.366250 88.253750
827 1 0.000000 16.293000 92.327000
828 1 0.000000 19.008500 95.042500
829 1 2.715500 16.293000 95.042500
830 1 2.715500 19.008500 92.327000
831 1 1.357750 17.650750 93.684750
832 1 1.357750 20.366250 96.400250
833 1 4.073250 17.650750 96.400250
834 1 4.073250 20.366250 93.684750
835 1 0.000000 16.293000 97.758000
836 1 0.000000 19.008500 100.473500
837 1 2.715500 16.293000 100.473500
838 1 2.715500 19.008500 97.758000
839 1 1.357750 17.650750 99.115750
840 1 1.357750 20.366250 101.831250
841 1 4.073250 17.650750 101.831250
842 1 4.073250 20.366250 99.115750
843 1 0.000000 16.293000 103.189000
844 1 0.000000 19.008500 105.904500
845 1 2.715500 16.293000 105.904500
846 1 2.715500 19.008500 103.189000
847 1 1.357750 17.650750 104.546750
848 1 1.357750 20.366250 107.262250
849 1 4.073250 17.650750 107.262250
850 1 4.073250 20.366250 104.546750
851 1 0.000000 16.293000 108.620000
852 1 0.000000 19.008500 111.335500
853 1 2.715500 16.293000 111.335500
854 1 2.715500 19.008500 108.620000
855 1 1.357750 17.650750 109.977750
856 1 1.357750 20.366250 112.693250
857 1 4.073250 17.650750 112.693250
858 1 4.073250 20.366250 109.977750
859 1 0.000000 16.293000 114.051000
860 1 0.000000 19.008500 116.766500
861 1 2.715500 16.293000 116.766500
862 1 2.715500 19.008500 114.051000
863 1 1.357750 17.650750 115.408750
864 1 1.357750 20.366250 118.124250
865 1 4.073250 17.650750 118.124250
866 1 4.073250 20.366250 115.408750
867 1 0.000000 16.293000 119.482000
868 1 0.000000 19.008500 122.197500
869 1 2.715500 16.293000 122.197500
870 1 2.715500 19.008500 119.482000
871 1 1.357750 17.650750 120.839750
872 1 1.357750 20.366250 123.555250
873 1 4.073250 17.650750 123.555250
874 1 4.073250 20.366250 120.839750
875 1 0.000000 16.293000 124.913000
876 1 0.000000 19.008500 127.628500
877 1 2.715500 16.293000 127.628500
878 1 2.715500 19.008500 124.913000
879 1 1.357750 17.650750 126.270750
880 1 1.357750 20.366250 128.986250
881 1 4.073250 17.650750 128.986250
882 1 4.073250 20.366250 126.270750
883 1 0.000000 16.293000 130.344000
884 1 0.000000 19.008500 133.059500
885 1 2.715500 16.293000 133.059500
886 1 2.715500 19.008500 130.344000
887 1 1.357750 17.650750 131.701750
888 1 1.357750 20.366250 134.417250
889 1 4.073250 17.650750 134.417250
890 1 4.073250 20.366250 131.701750
891 1 0.000000 16.293000 135.775000
892 1 0.000000 19.008500 138.490500
893 1 2.715500 16.293000 138.490500
894 1 2.715500 19.008500 135.775000
895 1 1.357750 17.650750 137.132750
896 1 1.357750 20.366250 139.848250
897 1 4.073250 17.650750 139.848250
898 1 4.073250 20.366250 137.132750
899 1 0.000000 16.293000 141.206000
900 1 0.000000 19.008500 143.921500
901 1 2.715500 16.293000 143.921500
902 1 2.715500 19.008500 141.206000
903 1 1.357750 17.650750 142.563750
904 1 1.357750 20.366250 145.279250
905 1 4.073250 17.650750 145.279250
906 1 4.073250 20.366250 142.563750
907 1 0.000000 16.293000 146.637000
908 1 0.000000 19.008500 149.352500
909 1 2.715500 16.293000 149.352500
910 1 2.715500 19.008500 146.637000
911 1 1.357750 17.650750 147.994750
912 1 1.357750 20.366250 150.710250
913 1 4.073250 17.650750 150.710250
914 1 4.073250 20.366250 147.994750
915 1 0.000000 16.293000 152.068000
916 1 0.000000 19.008500 154.783500
917 1 2.715500 16.293000 154.783500
918 1 2.715500 19.008500 152.068000
919 1 1.357750 17.650750 153.425750
920 1 1.357750 20.366250 156.141250
921 1 4.073250 17.650750 156.141250
922 1 4.073250 20.366250 153.425750
923 1 0.000000 16.293000 157.499000
924 1 0.000000 19.008500 160.214500
925 1 2.715500 16.293000 160.214500
926 1 2.715500 19.008500 157.499000
927 1 1.357750 17.650750 158.856750
928 1 1.357750 20.366250 161.572250
929 1 4.073250 17.650750 161.572250
930 1 4.073250 20.366250 158.856750
931 1 0.000000 16.293000 162.930000
932 1 0.000000 19.008500 165.645500
933 1 2.715500 16.293000 165.645500
934 1 2.715500 19.008500 162.930000
935 1 1.357750 17.650750 164.287750
936 1 1.357750 20.366250 167.003250
937 1 4.073250 17.650750 167.003250
938 1 4.073250 20.366250 164.287750
939 1 0.000000 16.293000 168.361000
940 1 0.000000 19.008500 171.076500
941 1 2.715500 16.293000 171.076500
942 1 2.715500 19.008500 168.361000
943 1 1.357750 17.650750 169.718750
944 1 1.357750 20.366250 172.434250
945 1 4.073250 17.650750 172.434250
946 1 4.073250 20.366250 169.718750
947 1 0.000000 16.293000 173.792000
948 1 0.000000 19.008500 176.507500
949 1 2.715500 16.293000 176.507500
950 1 2.715500 19.008500 173.792000
951 1 1.357750 17.650750 175.149750
952 1 1.357750 20.366250 177.865250
953 1 4.073250 17.650750 177.865250
954 1 4.073250 20.366250 175.149750
955 1 0.000000 16.293000 179.223000
956 1 0.000000 19.008500 181.938500
957 1 2.715500 16.293000 181.938500
958 1 2.715500 19.008500 179.223000
959 1 1.357750 17.650750 180.580750
960 1 1.357750 20.366250 183.296250
961 1 4.073250 17.650750 183.296250
962 1 4.073250 20.366250 180.580750
963 1 0.000000 16.293000 184.654000
964 1 0.000000 19.008500 187.369500
965 1 2.715500 16.293000 187.369500
966 1 2.715500 19.008500 184.654000
967 1 1.357750 17.650750 186.011750
968 1 1.357750 20.366250 188.727250
969 1 4.073250 17.650750 188.727250
970 1 4.073250 20.366250 186.011750
971 1 0.000000 16.293000 190.085000
972 1 0.000000 19.008500 192.800500
973 1 2.715500 16.293000 192.800500
974 1 2.715500 19.008500 190.085000
975 1 1.357750 17.650750 191.442750
976 1 1.357750 20.366250 194.158250
977 1 4.073250 17.650750 194.158250
978 1 4.073250 20.366250 191.442750
979 1 0.000000 16.293000 195.516000
980 1 0.000000 19.008500 198.231500
981 1 2.715500 16.293000 198.231500
982 1 2.715500 19.008500 195.516000
983 1 1.357750 17.650750 196.873750
984 1 1.357750 20.366250 199.589250
985 1 4.073250 17.650750 199.589250
986 1 4.073250 20.366250 196.873750
987 1 0.000000 16.293000 200.947000
988 1 0.000000 19.008500 203.662500
989 1 2.715500 16.293000 203.662500
990 1 2.715500 19.008500 200.947000
991 1 1.357750 17.650750 202.304750
992 1 1.357750 20.366250 205.020250
993 1 4.073250 17.650750 205.020250
994 1 4.073250 20.366250 202.304750
995 1 0.000000 16.293000 206.378000
996 1 0.000000 19.008500 209.093500
997 1 2.715500 16.293000 209.093500
998 1 2.715500 19.008500 206.378000
999 1 1.357750 17.650750 207.735750
1000 1 1.357750 20.366250 210.451250
1001 1 4.073250 17.650750 210.451250
1002 1 4.073250 20.366250 207.735750
1003 1 0.000000 16.293000 211.809000
1004 1 0.000000 19.008500 214.524500
1005 1 2.715500 16.293000 214.524500
1006 1 2.715500 19.008500 211.809000
1007 1 1.357750 17.650750 213.166750
1008 1 1.357750 20.366250 215.882250
1009 1 4.073250 17.650750 215.882250
1010 1 4.073250 20.366250 213.166750
1011 1 0.000000 16.293000 217.240000
1012 1 0.000000 19.008500 219.955500
1013 1 2.715500 16.293000 219.955500
1014 1 2.715500 19.008500 217.240000
1015 1 1.357750 17.650750 218.597750
1016 1 1.357750 20.366250 221.313250
1017 1 4.073250 17.650750 221.313250
1018 1 4.073250 20.366250 218.597750
1019 1 0.000000 16.293000 222.671000
1020 1 0.000000 19.008500 225.386500
1021 1 2.715500 16.293000 225.386500
1022 1 2.715500 19.008500 222.671000
1023 1 1.357750 17.650750 224.028750
1024 1 1.357750 20.366250 226.744250
1025 1 4.073250 17.650750 226.744250
1026 1 4.073250 20.366250 224.028750
1027 1 0.000000 16.293000 228.102000
1028 1 0.000000 19.008500 230.817500
1029 1 2.715500 16.293000 230.817500
1030 1 2.715500 19.008500 228.102000
1031 1 1.357750 17.650750 229.459750
1032 1 1.357750 20.366250 232.175250
1033 1 4.073250 17.650750 232.175250
1034 1 4.073250 20.366250 229.459750
1035 1 0.000000 16.293000 233.533000
1036 1 0.000000 19.008500 236.248500
1037 1 2.715500 16.293000 236.248500
1038 1 2.715500 19.008500 233.533000
1039 1 1.357750 17.650750 234.890750
1040 1 1.357750 20.366250 237.606250
1041 1 4.073250 17.650750 237.606250
1042 1 4.073250 20.366250 234.890750
1043 1 0.000000 16.293000 238.964000
1044 1 0.000000 19.008500 241.679500
1045 1 2.715500 16.293000 241.679500
1046 1 2.715500 19.008500 238.964000
1047 1 1.357750 17.650750 240.321750
1048 1 1.357750 20.366250 243.037250
1049 1 4.073250 17.650750 243.037250
1050 1 4.073250 20.366250 240.321750
1051 1 0.000000 16.293000 244.395000
1052 1 0.000000 19.008500 247.110500
1053 1 2.715500 16.293000 247.110500
1054 1 2.715500 19.008500 244.395000
1055 1 1.357750 17.650750 245.752750
1056 1 1.357750 20.366250 248.468250
1057 1 4.073250 17.650750 248.468250
1058 1 4.073250 20.366250 245.752750
1059 1 0.000000 16.293000 249.826000
1060 1 0.000000 19.008500 252.541500
1061 1 2.715500 16.293000 252.541500
1062 1 2.715500 19.008500 249.826000
1063 1 1.357750 17.650750 251.183750
1064 1 1.357750 20.366250 253.899250
1065 1 4.073250 17.650750 253.899250
1066 1 4.073250 20.366250 251.183750
1067 1 0.000000 16.293000 255.257000
1068 1 0.000000 19.008500 257.972500
1069 1 2.715500 16.293000 257.972500
1070 1 2.715500 19.008500 255.257000
1071 1 1.357750 17.650750 256.614750
1072 1 1.357750 20.366250 259.330250
1073 1 4.073250 17.650750 259.330250
1074 1 4.073250 20.366250 256.614750
1075 1 0.000000 21.724000 0.000000
1076 1 0.000000 24.439500 2.715500
1077 1 2.715500 21.724000 2.715500
1078 1 2.715500 24.439500 0.000000
1079 1 1.357750 23.081750 1.357750
1080 1 1.357750 25.797250 4.073250
1081 1 4.073250 23.081750 4.073250
1082 1 4.073250 25.797250 1.357750
1083 1 0.000000 21.724000 5.431000
1084 1 0.000000 24.439500 8.146500
1085 1 2.715500 21.724000 8.146500
1086 1 2.715500 24.439500 5.431000
1087 1 1.357750 23.081750 6.788750
1088 1 1.357750 25.797250 9.504250
1089 1 4.073250 23.081750 9.504250
1090 1 4.073250 25.797250 6.788750
1091 1 0.000000 21.724000 10.862000
1092 1 0.000000 24.439500 13.577500
1093 1 2.715500 21.724000 13.577500
1094 1 2.715500 24.439500 10.862000
1095 1 1.357750 23.081750 12.219750
1096 1 1.357750 25.797250 14.935250
1097 1 4.073250 23.081750 14.935250
1098 1 4.073250 25.797250 12.219750
1099 1 0.000000 21.724000 16.293000
1100 1 0.000000 24.439500 19.008500
1101 1 2.715500 21.724000 19.008500
1102 1 2.715500 24.439500 16.293000
1103 1 1.357750 23.081750 17.650750
1104 1 1.357750 25.797250 20.366250
1105 1 4.073250 23.081750 20.366250
1106 1 4.073250 25.797250 17.650750
1107 1 0.000000 21.724000 21.724000
1108 1 0.000000 24.439500 24.439500
1109 1 2.715500 21.724000 24.439500
1110 1 2.715500 24.439500 21.724000
1111 1 1.357750 23.081750 23.081750
1112 1 1.357750 25.797250 25.797250
1113 1 4.073250 23.081750 25.797250
1114 1 4.073250 25.797250 23.081750
1115 1 0.000000 21.724000 27.155000
1116 1 0.000000 24.439500 29.870500
1117 1 2.715500 21.724000 29.870500
1118 1 2.715500 24.439500 27.155000
1119 1 1.357750 23.081750 28.512750
1120 1 1.357750 25.797250 31.228250
1121 1 4.073250 23.081750 31.228250
1122 1 4.073250 25.797250 28.512750
1123 1 0.000000 21.724000 32.586000
1124 1 0.000000 24.439500 35.301500
1125 1 2.715500 21.724000 35.301500
1126 1 2.715500 24.439500 32.586000
1127 1 1.357750 23.081750 33.943750
1128 1 1.357750 25.797250 36.659250
1129 1 4.073250 23.081750 36.659250
1130 1 4.073250 25.797250 33.943750
1131 1 0.000000 21.724000 38.017000
1132 1 0.000000 24.439500 40.732500
1133 1 2.715500 21.724000 40.732500
1134 1 2.715500 24.439500 38.017000
1135 1 1.357750 23.081750 39.374750
1136 1 1.357750 25.797250 42.090250
1137 1 4.073250 23.081750 42.090250
1138 1 4.073250 25.797250 39.374750
1139 1 0.000000 21.724000 43.448000
1140 1 0.000000 24.439500 46.163500
1141 1 2.715500 21.724000 46.163500
1142 1 2.715500 24.439500 43.448000
1143 1 1.357750 23.081750 44.805750
1144 1 1.357750 25.797250 47.521250
1145 1 4.073250 23.081750 47.521250
1146 1 4.073250 25.797250 44.805750
1147 1 0.000000 21.724000 48.879000
1148 1 0.000000 24.439500 51.594500
1149 1 2.715500 21.724000 51.594500
1150 1 2.715500 24.439500 48.879000
1151 1 1.357750 23.081750 50.236750
1152 1 1.357750 25.797250 52.952250
1153 1 4.073250 23.081750 52.952250
1154 1 4.073250 25.797250 50.236750
1155 1 0.000000 21.724000 54.310000
1156 1 0.000000 24.439500 57.025500
1157 1 2.715500 21.724000 57.025500
1158 1 2.715500 24.439500 54.310000
1159 1 1.357750 23.081750 55.667750
1160 1 1.357750 25.797250 58.383250
1161 1 4.073250 23.081750 58.383250
1162 1 4.073250 25.797250 55.667750
1163 1 0.000000 21.724000 59.741000
1164 1 0.000000 24.439500 62.456500
1165 1 2.715500 21.724000 62.456500
1166 1 2.715500 24.439500 59.741000
1167 1 1.357750 23.081750 61.098750
1168 1 1.357750 25.797250 63.814250
1169 1 4.073250 23.081750 63.814250
1170 1 4.073250 25.797250 61.098750
1171 1 0.000000 21.724000 65.172000
1172 1 0.000000 24.439500 67.887500
1173 1 2.715500 21.724000 67.887500
1174 1 2.715500 24.439500 65.172000
1175 1 1.357750 23.081750 66.529750
1176 1 1.357750 25.797250 69.245250
1177 1 4.073250 23.081750 69.245250
1178 1 4.073250 25.797250 66.529750
1179 1 0.000000 21.724000 70.603000
1180 1 0.000000 24.439500 73.318500
1181 1 2.715500 21.724000 73.318500
1182 1 2.715500 24.439500 70.603000
1183 1 1.357750 23.081750 71.960750
1184 1 1.357750 25.797250 74.676250
1185 1 4.073250 23.081750 74.676250
1186 1 4.073250 25.797250 71.960750
1187 1 0.000000 21.724000 76.034000
1188 1 0.000000 24.439500 78.749500
1189 1 2.715500 21.724000 78.749500
1190 1 2.715500 24.439500 76.034000
1191 1 1.357750 23.081750 77.391750
1192 1 1.357750 25.797250 80.107250
1193 1 4.073250 23.081750 80.107250
1194 1 4.073250 25.797250 77.391750
1195 1 0.000000 21.724000 81.465000
1196 1 0.000000 24.439500 84.180500
1197 1 2.715500 21.724000 84.180500
1198 1 2.715500 24.439500 81.465000
1199 1 1.357750 23.081750 82.822750
1200 1 1.357750 25.797250 85.538250
1201 1 4.073250 23.081750 85.538250
1202 1 4.073250 25.797250 82.822750
1203 1 0.000000 21.724000 86.896000
1204 1 0.000000 24.439500 89.611500
1205 1 2.715500 21.724000 89.611500
1206 1 2.715500 24.439500 86.896000
1207 1 1.357750 23.081750 88.253750
1208 1 1.357750 25.797250 90.969250
1209 1 4.073250 23.081750 90.969250
1210 1 4.073250 25.797250 88.253750
1211 1 0.000000 21.724000 92.327000
1212 1 0.000000 24.439500 95.042500
1213 1 2.715500 21.724000 95.042500
1214 1 2.715500 24.439500 92.327000
1215 1 1.357750 23.081750 93.684750
1216 1 1.357750 25.797250 96.400250
1217 1 4.073250 23.081750 96.400250
1218 1 4.073250 25.797250 93.684750
1219 1 0.000000 21.724000 97.758000
1220 1 0.000000 24.439500 100.473500
1221 1 2.715500 21.724000 100.473500
1222 1 2.715500 24.439500 97.758000
1223 1 1.357750 23.081750 99.115750
1224 1 1.357750 25.797250 101.831250
1225 1 4.073250 23.081750 101.831250
1226 1 4.073250 25.797250 99.115750
1227 1 0.000000 21.724000 103.189000
1228 1 0.000000 24.439500 105.904500
1229 1 2.715500 21.724000 105.904500
1230 1 2.715500 24.439500 103.189000
1231 1 1.357750 23.081750 104.546750
1232 1 1.357750 25.797250 107.262250
1233 1 4.073250 23.081750 107.262250
1234 1 4.073250 25.797250 104.546750
1235 1 0.000000 21.724000 108.620000
1236 1 0.000000 24.439500 111.335500
1237 1 2.715500 21.724000 111.335500
1238 1 2.715500 24.439500 108.620000
1239 1 1.357750 23.081750 109.977750
1240 1 1.357750 25.797250 112.693250
1241 1 4.073250 23.081750 112.693250
1242 1 4.073250 25.797250 109.977750
1243 1 0.000000 21.724000 114.051000
1244 1 0.000000 24.439500 116.766500
1245 1 2.715500 21.724000 116.766500
1246 1 2.715500 24.439500 114.051000
1247 1 1.357750 23.081750 115.408750
1248 1 1.357750 25.797250 118.124250
1249 1 4.073250 23.081750 118.124250
1250 1 4.073250 25.797250 115.408750
1251 1 0.000000 21.724000 119.482000
1252 1 0.000000 24.439500 122.197500
1253 1 2.715500 21.724000 122.197500
1254 1 2.715500 24.439500 119.482000
1255 1 1.357750 23.081750 120.839750
1256 1 1.357750 25.797250 123.555250
1257 1 4.073250 23.081750 123.555250
1258 1 4.073250 25.797250 120.839750
1259 1 0.000000 21.724000 124.913000
1260 1 0.000000 24.439500 127.628500
1261 1 2.715500 21.724000 127.628500
1262 1 2.715500 24.439500 124.913000
1263 1 1.357750 23.081750 126.270750
1264 1 1.357750 25.797250 128.986250
1265 1 4.073250 23.081750 128.986250
1266 1 4.073250 25.797250 126.270750
1267 1 0.000000 21.724000 130.344000
1268 1 0.000000 24.439500 133.059500
1269 1 2.715500 21.724000 133.059500
1270 1 2.715500 24.439500 130.344000
1271 1 1.357750 23.081750 131.701750
1272 1 1.357750 25.797250 134.417250
1273 1 4.073250 23.081750 134.417250
1274 1 4.073250 25.797250 131.701750
1275 1 0.000000 21.724000 135.775000
1276 1 0.000000 24.439500 138.490500
1277 1 2.715500 21.724000 138.490500
1278 1 2.715500 24.439500 135.775000
1279 1 1.357750 23.081750 137.132750
1280 1 1.357750 25.797250 139.848250
1281 1 4.073250 23.081750 139.848250
1282 1 4.073250 25.797250 137.132750
1283 1 0.000000 21.724000 141.206000
1284 1 0.000000 24.439500 143.921500
1285 1 2.715500 21.724000 143.921500
1286 1 2.715500 24.439500 141.206000
1287 1 1.357750 23.081750 142.563750
1288 1 1.357750 25.797250 145.279250
1289 1 4.073250 23.081750 145.279250
1290 1 4.073250 25.797250 142.563750
1291 1 0.000000 21.724000 146.637000
1292 1 0.000000 24.439500 149.352500
1293 1 2.715500 21.724000 149.352500
1294 1 2.715500 24.439500 146.637000
1295 1 1.357750 23.081750 147.994750
1296 1 1.357750 25.797250 150.710250
1297 1 4.073250 23.081750 150.710250
1298 1 4.073250 25.797250 147.994750
1299 1 0.000000 21.724000 152.068000
1300 1 0.000000 24.439500 154.783500
1301 1 2.715500 21.724000 154.783500
1302 1 2.715500 24.439500 152.068000
1303 1 1.357750 23.081750 153.425750
1304 1 1.357750 25.797250 156.141250
1305 1 4.073250 23.081750 156.141250
1306 1 4.073250 25.797250 153.425750
1307 1 0.000000 21.724000 157.499000
1308 1 0.000000 24.439500 160.214500
1309 1 2.715500 21.724000 160.214500
1310 1 2.715500 24.439500 157.499000
1311 1 1.357750 23.081750 158.856750
1312 1 1.357750 25.797250 161.572250
1313 1 4.073250 23.081750 161.572250
1314 1 4.073250 25.797250 158.856750
1315 1 0.000000 21.724000 162.930000
1316 1 0.000000 24.439500 165.645500
1317 1 2.715500 21.724000 165.645500
1318 1 2.715500 24.439500 162.930000
1319 1 1.357750 23.081750 164.287750
1320 1 1.357750 25.797250 167.003250
1321 1 4.073250 23.081750 167.003250
1322 1 4.073250 25.797250 164.287750
1323 1 0.000000 21.724000 168.361000
1324 1 0.000000 24.439500 171.076500
1325 1 2.715500 21.724000 171.076500
1326 1 2.715500 24.439500 168.361000
1327 1 1.357750 23.081750 169.718750
1328 1 1.357750 25.797250 172.434250
1329 1 4.073250 23.081750 172.434250
1330 1 4.073250 25.797250 169.718750
1331 1 0.000000 21.724000 173.792000
1332 1 0.000000 24.439500 176.507500
1333 1 2.715500 21.724000 176.507500
1334 1 2.715500 24.439500 173.792000
1335 1 1.357750 23.081750 175.149750
1336 1 1.357750 25.797250 177.865250
1337 1 4.073250 23.081750 177.865250
1338 1 4.073250 25.797250 175.149750
1339 1 0.000000 21.724000 179.223000
1340 1 0.000000 24.439500 181.938500
1341 1 2.715500 21.724000 181.938500
1342 1 2.715500 24.439500 179.223000
1343 1 1.357750 23.081750 180.580750
1344 1 1.357750 25.797250 183.296250
1345 1 4.073250 23.081750 183.296250
1346 1 4.073250 25.797250 180.580750
1347 1 0.000000 21.724000 184.654000
1348 1 0.000000 24.439500 187.369500
1349 1 2.715500 21.724000 187.369500
1350 1 2.715500 24.439500 184.654000
1351 1 1.357750 23.081750 186.011750
1352 1 1.357750 25.797250 188.727250
1353 1 4.073250 23.081750 188.727250
1354 1 4.073250 25.797250 186.011750
1355 1 0.000000 21.724000 190.085000
1356 1 0.000000 24.439500 192.800500
1357 1 2.715500 21.724000 192.800500
1358 1 2.715500 24.439500 190.085000
1359 1 1.357750 23.081750 191.442750
1360 1 1.357750 25.797250 194.158250
1361 1 4.073250 23.081750 194.158250
1362 1 4.073250 25.797250 191.442750
1363 1 0.000000 21.724000 195.516000
1364 1 0.000000 24.439500 198.231500
1365 1 2.715500 21.724000 198.231500
1366 1 2.715500 24.439500 195.516000
1367 1 1.357750 23.081750 196.873750
1368 1 1.357750 25.797250 199.589250
1369 1 4.073250 23.081750 199.589250
1370 1 4.073250 25.797250 196.873750
1371 1 0.000000 21.724000 200.947000
1372 1 0.000000 24.439500 203.662500
1373 1 2.715500 21.724000 203.662500
1374 1 2.715500 24.439500 200.947000
1375 1 1.357750 23.081750 202.304750
1376 1 1.357750 25.797250 205.020250
1377 1 4.073250 23.081750 205.020250
1378 1 4.073250 25.797250 202.304750
1379 1 0.000000 21.724000 206.378000
1380 1 0.000000 24.439500 209.093500
1381 1 2.715500 21.724000 209.093500
1382 1 2.715500 24.439500 206.378000
1383 1 1.357750 23.081750 207.735750
1384 1 1.357750 25.797250 210.451250
1385 1 4.073250 23.081750 210.451250
1386 1 4.073250 25.797250 207.735750
1387 1 0.000000 21.724000 211.809000
1388 1 0.000000 24.439500 214.524500
1389 1 2.715500 21.724000 214.524500
1390 1 2.715500 24.439500 211.809000
1391 1 1.357750 23.081750 213.166750
1392 1 1.357750 25.797250 215.882250
1393 1 4.073250 23.081750 215.882250
1394 1 4.073250 25.797250 213.166750
1395 1 0.000000 21.724000 217.240000
1396 1 0.000000 24.439500 219.955500
1397 1 2.715500 21.724000 219.955500
1398 1 2.715500 24.439500 217.240000
1399 1 1.357750 23.081750 218.597750
1400 1 1.357750 25.797250 221.313250
1401 1 4.073250 23.081750 221.313250
1402 1 4.073250 25.797250 218.597750
1403 1 0.000000 21.724000 222.671000
1404 1 0.000000 24.439500 225.386500
1405 1 2.715500 21.724000 225.386500
1406 1 2.715500 24.439500 222.671000
1407 1 1.357750 23.081750 224.028750
1408 1 1.357750 25.797250 226.744250
1409 1 4.073250 23.081750 226.744250
1410 1 4.073250 25.797250 224.028750
1411 1 0.000000 21.724000 228.102000
1412 1 0.000000 24.439500 230.817500
1413 1 2.715500 21.724000 230.817500
1414 1 2.715500 24.439500 228.102000
1415 1 1.357750 23.081750 229.459750
1416 1 1.357750 25.797250 232.175250
1417 1 4.073250 23.081750 232.175250
1418 1 4.073250 25.797250 229.459750
1419 1 0.000000 21.724000 233.533000
1420 1 0.000000 24.439500 236.248500
1421 1 2.715500 21.724000 236.248500
1422 1 2.715500 24.439500 233.533000
1423 1 1.357750 23.081750 234.890750
1424 1 1.357750 25.797250 237.606250
1425 1 4.073250 23.081750 237.606250
1426 1 4.073250 25.797250 234.890750
1427 1 0.000000 21.724000 238.964000
1428 1 0.000000 24.439500 241.679500
1429 1 2.715500 21.724000 241.679500
1430 1 2.715500 24.439500 238.964000
1431 1 1.357750 23.081750 240.321750
1432 1 1.357750 25.797250 243.037250
1433 1 4.073250 23.081750 243.037250
1434 1 4.073250 25.797250 240.321750
1435 1 0.000000 21.724000 244.395000
1436 1 0.000000 24.439500 247.110500
1437 1 2.715500 21.724000 247.110500
1438 1 2.715500 24.439500 244.395000
1439 1 1.357750 23.081750 245.752750
1440 1 1.357750 25.797250 248.468250
1441 1 4.073250 23.081750 248.468250
1442 1 4.073250 25.797250 245.752750
1443 1 0.000000 21.724000 249.826000
1444 1 0.000000 24.439500 252.541500
1445 1 2.715500 21.724000 252.541500
1446 1 2.715500 24.439500 249.826000
1447 1 1.357750 23.081750 251.183750
1448 1 1.357750 25.797250 253.899250
1449 1 4.073250 23.081750 253.899250
1450 1 4.073250 25.797250 251.183750
1451 1 0.000000 21.724000 255.257000
1452 1 0.000000 24.439500 257.972500
1453 1 2.715500 21.724000 257.972500
1454 1 2.715500 24.439500 255.257000
1455 1 1.357750 23.081750 256.614750
1456 1 1.357750 25.797250 259.330250
1457 1 4.073250 23.081750 259.330250
1458 1 4.073250 25.797250 256.614750
1459 1 0.000000 27.155000 0.000000
1460 1 0.000000 29.870500 2.715500
1461 1 2.715500 27.155000 2.715500
1462 1 2.715500 29.870500 0.000000
1463 1 1.357750 28.512750 1.357750
1464 1 1.357750 31.228250 4.073250
1465 1 4.073250 28.512750 4.073250
1466 1 4.073250 31.228250 1.357750
1467 1 0.000000 27.155000 5.431000
1468 1 0.000000 29.870500 8.146500
1469 1 2.715500 27.155000 8.146500
1470 1 2.715500 29.870500 5.431000
1471 1 1.357750 28.512750 6.788750
1472 1 1.357750 31.228250 9.504250
1473 1 4.073250 28.512750 9.504250
1474 1 4.073250 31.228250 6.788750
1475 1 0.000000 27.155000 10.862000
1476 1 0.000000 29.870500 13.577500
1477 1 2.715500 27.155000 13.577500
1478 1 2.715500 29.870500 10.862000
1479 1 1.357750 28.512750 12.219750
1480 1 1.357750 31.228250 14.935250
1481 1 4.073250 28.512750 14.935250
1482 1 4.073250 31.228250 12.219750
1483 1 0.000000 27.155000 16.293000
1484 1 0.000000 29.870500 19.008500
1485 1 2.715500 27.155000 19.008500
1486 1 2.715500 29.870500 16.293000
1487 1 1.357750 28.512750 17.650750
1488 1 1.357750 31.228250 20.366250
1489 1 4.073250 28.512750 20.366250
1490 1 4.073250 31.228250 17.650750
1491 1 0.000000 27.155000 21.724000
1492 1 0.000000 29.870500 24.439500
1493 1 2.715500 27.155000 24.439500
1494 1 2.715500 29.870500 21.724000
1495 1 1.357750 28.512750 23.081750
1496 1 1.357750 31.228250 25.797250
1497 1 4.073250 28.512750 25.797250
1498 1 4.073250 31.228250 23.081750
1499 1 0.000000 27.155000 27.155000
1500 1 0.000000 29.870500 29.870500
1501 1 2.715500 27.155000 29.870500
1502 1 2.715500 29.870500 27.155000
1503 1 1.357750 28.512750 28.512750
1504 1 1.357750 31.228250 31.228250
1505 1 4.073250 28.512750 31.228250
1506 1 4.073250 31.228250 28.512750
1507 1 0.000000 27.155000 32.586000
1508 1 0.000000 29.870500 35.301500
1509 1 2.715500 27.155000 35.301500
1510 1 2.715500 29.870500 32.586000
1511 1 1.357750 28.512750 33.943750
1512 1 1.357750 31.228250 36.659250
1513 1 4.073250 28.512750 36.659250
1514 1 4.073250 31.228250 33.943750
1515 1 0.000000 27.155000 38.017000
1516 1 0.000000 29.870500 40.732500
1517 1 2.715500 27.155000 40.732500
1518 1 2.715500 29.870500 38.017000
1519 1 1.357750 28.512750 39.374750
1520 1 1.357750 31.228250 42.090250
1521 1 4.073250 28.512750 42.090250
1522 1 4.073250 31.228250 39.374750
1523 1 0.000000 27.155000 43.448000
1524 1 0.000000 29.870500 46.163500
1525 1 2.715500 27.155000 46.163500
1526 1 2.715500 29.870500 43.448000
1527 1 1.357750 28.512750 44.805750
1528 1 1.357750 31.228250 47.521250
1529 1 4.073250 28.512750 47.521250
1530 1 4.073250 31.228250 44.805750
1531 1 0.000000 27.155000 48.879000
1532 1 0.000000 29.870500 51.594500
1533 1 2.715500 27.155000 51.594500
1534 1 2.715500 29.870500 48.879000
1535 1 1.357750 28.512750 50.236750
1536 1 1.357750 31.228250 52.952250
1537 1 4.073250 28.512750 52.952250
1538 1 4.073250 31.228250 50.236750
1539 1 0.000000 27.155000 54.310000
1540 1 0.000000 29.870500 57.025500
1541 1 2.715500 27.155000 57.025500
1542 1 2.715500 29.870500 54.310000
1543 1 1.357750 28.512750 55.667750
1544 1 1.357750 31.228250 58.383250
1545 1 4.073250 28.512750 58.383250
1546 1 4.073250 31.228250 55.667750
1547 1 0.000000 27.155000 59.741000
1548 1 0.000000 29.870500 62.456500
1549 1 2.715500 27.155000 62.456500
1550 1 2.715500 29.870500 59.741000
1551 1 1.357750 28.512750 61.098750
1552 1 1.357750 31.228250 63.814250
1553 1 4.073250 28.512750 63.814250
1554 1 4.073250 31.228250 61.098750
1555 1 0.000000 27.155000 65.172000
1556 1 0.000000 29.870500 67.887500
1557 1 2.715500 27.155000 67.887500
1558 1 2.715500 29.870500 65.172000
1559 1 1.357750 28.512750 66.529750
1560 1 1.357750 31.228250 69.245250
1561 1 4.073250 28.512750 69.245250
1562 1 4.073250 31.228250 66.529750
1563 1 0.000000 27.155000 70.603000
1564 1 0.000000 29.870500 73.318500
1565 1 2.715500 27.155000 73.318500
1566 1 2.715500 29.870500 70.603000
1567 1 1.357750 28.512750 71.960750
1568 1 1.357750 31.228250 74.676250
1569 1 4.073250 28.512750 74.676250
1570 1 4.073250 31.228250 71.960750
1571 1 0.000000 27.155000 76.034000
1572 1 0.000000 29.870500 78.749500
1573 1 2.715500 27.155000 78.749500
1574 1 2.715500 29.870500 76.034000
1575 1 1.357750 28.512750 77.391750
1576 1 1.357750 31.228250 80.107250
1577 1 4.073250 28.512750 80.107250
1578 1 4.073250 31.228250 77.391750
1579 1 0.000000 27.155000 81.465000
1580 1 0.000000 29.870500 84.180500
1581 1 2.715500 27.155000 84.180500
1582 1 2.715500 29.870500 81.465000
1583 1 1.357750 28.512750 82.822750
1584 1 1.357750 31.228250 85.538250
1585 1 4.073250 28.512750 85.538250
1586 1 4.073250 31.228250 82.822750
1587 1 0.000000 27.155000 86.896000
1588 1 0.000000 29.870500 89.611500
1589 1 2.715500 27.155000 89.611500
1590 1 2.715500 29.870500 86.896000
1591 1 1.357750 28.512750 88.253750
1592 1 1.357750 31.228250 90.969250
1593 1 4.073250 28.512750 90.969250
1594 1 4.073250 31.228250 88.253750
1595 1 0.000000 27.155000 92.327000
1596 1 0.000000 29.870500 95.042500
1597 1 2.715500 27.155000 95.042500
1598 1 2.715500 29.870500 92.327000
1599 1 1.357750 28.512750 93.684750
1600 1 1.357750 31.228250 96.400250
1601 1 4.073250 28.512750 96.400250
1602 1 4.073250 31.228250 93.684750
1603 1 0.000000 27.155000 97.758000
1604 1 0.000000 29.870500 100.473500
1605 1 2.715500 27.155000 100.473500
1606 1 2.715500 29.870500 97.758000
1607 1 1.357750 28.512750 99.115750
1608 1 1.357750 31.228250 101.831250
1609 1 4.073250 28.512750 101.831250
1610 1 4.073250 31.228250 99.115750
1611 1 0.000000 27.155000 103.189000
1612 1 0.000000 29.870500 105.904500
1613 1 2.715500 27.155000 105.904500
1614 1 2.715500 29.870500 103.189000
1615 1 1.357750 28.512750 104.546750
1616 1 1.357750 31.228250 107.262250
1617 1 4.073250 28.512750 107.262250
1618 1 4.073250 31.228250 104.546750
1619 1 0.000000 27.155000 108.620000
1620 1 0.000000 29.870500 111.335500
1621 1 2.715500 27.155000 111.335500
1622 1 2.715500 29.870500 108.620000
1623 1 1.357750 28.512750 109.977750
1624 1 1.357750 31.228250 112.693250
1625 1 4.073250 28.512750 112.693250
1626 1 4.073250 31.228250 109.977750
1627 1 0.000000 27.155000 114.051000
1628 1 0.000000 29.870500 116.766500
1629 1 2.715500 27.155000 116.766500
1630 1 2.715500 29.870500 114.051000
1631 1 1.357750 28.512750 115.408750
1632 1 1.357750 31.228250 118.124250
1633 1 4.073250 28.512750 118.124250
1634 1 4.073250 31.228250 115.408750
1635 1 0.000000 27.155000 119.482000
1636 1 0.000000 29.870500 122.197500
1637 1 2.715500 27.155000 122.197500
1638 1 2.715500 29.870500 119.482000
1639 1 1.357750 28.512750 120.839750
1640 1 1.357750 31.228250 123.555250
1641 1 4.073250 28.512750 123.555250
1642 1 4.073250 31.228250 120.839750
1643 1 0.000000 27.155000 124.913000
1644 1 0.000000 29.870500 127.628500
1645 1 2.715500 27.155000 127.628500
1646 1 2.715500 29.870500 124.913000
1647 1 1.357750 28.512750 126.270750
1648 1 1.357750 31.228250 128.986250
1649 1 4.073250 28.512750 128.986250
1650 1 4.073250 31.228250 126.270750
1651 1 0.000000 27.155000 130.344000
1652 1 0.000000 29.870500 133.059500
1653 1 2.715500 27.155000 133.059500
1654 1 2.715500 29.870500 130.344000
1655 1 1.357750 28.512750 131.701750
1656 1 1.357750 31.228250 134.417250
1657 1 4.073250 28.512750 134.417250
1658 1 4.073250 31.228250 131.701750
1659 1 0.000000 27.155000 135.775000
1660 1 0.000000 29.870500 138.490500
1661 1 2.715500 27.155000 138.490500
1662 1 2.715500 29.870500 135.775000
1663 1 1.357750 28.512750 137.132750
1664 1 1.357750 31.228250 139.848250
1665 1 4.073250 28.512750 139.848250
1666 1 4.073250 31.228250 137.132750
1667 1 0.000000 27.155000 141.206000
1668 1 0.000000 29.870500 143.921500
1669 1 2.715500 27.155000 143.921500
1670 1 2.715500 29.870500 141.206000
1671 1 1.357750 28.512750 142.563750
1672 1 1.357750 31.228250 145.279250
1673 1 4.073250 28.512750 145.279250
1674 1 4.073250 31.228250 142.563750
1675 1 0.000000 27.155000 146.637000
1676 1 0.000000 29.870500 149.352500
1677 1 2.715500 27.155000 149.352500
1678 1 2.715500 29.870500 146.637000
1679 1 1.357750 28.512750 147.994750
1680 1 1.357750 31.228250 150.710250
1681 1 4.073250 28.512750 150.710250
1682 1 4.073250 31.228250 147.994750
1683 1 0.000000 27.155000 152.068000
1684 1 0.000000 29.870500 154.783500
1685 1 2.715500 27.155000 154.783500
1686 1 2.715500 29.870500 152.068000
1687 1 1.357750 28.512750 153.425750
1688 1 1.357750 31.228250 156.141250
1689 1 4.073250 28.512750 156.141250
1690 1 4.073250 31.228250 153.425750
1691 1 0.000000 27.155000 157.499000
1692 1 0.000000 29.870500 160.214500
1693 1 2.715500 27.155000 160.214500
1694 1 2.715500 29.870500 157.499000
1695 1 1.357750 28.512750 158.856750
1696 1 1.357750 31.228250 161.572250
1697 1 4.073250 28.512750 161.572250
1698 1 4.073250 31.228250 158.856750
1699 1 0.000000 27.155000 162.930000
1700 1 0.000000 29.870500 165.645500
1701 1 2.715500 27.155000 165.645500
1702 1 2.715500 29.870500 162.930000
1703 1 1.357750 28.512750 164.287750
1704 1 1.357750 31.228250 167.003250
1705 1 4.073250 28.512750 167.003250
1706 1 4.073250 31.228250 164.287750
1707 1 0.000000 27.155000 168.361000
1708 1 0.000000 29.870500 171.076500
1709 1 2.715500 27.155000 171.076500
1710 1 2.715500 29.870500 168.361000
1711 1 1.357750 28.512750 169.718750
1712 1 1.357750 31.228250 172.434250
1713 1 4.073250 28.512750 172.434250
1714 1 4.073250 31.228250 169.718750
1715 1 0.000000 27.155000 173.792000
1716 1 0.000000 29.870500 176.507500
1717 1 2.715500 27.155000 176.507500
1718 1 2.715500 29.870500 173.792000
1719 1 1.357750 28.512750 175.149750
1720 1 1.357750 31.228250 177.865250
1721 1 4.073250 28.512750 177.865250
1722 1 4.073250 31.228250 175.149750
1723 1 0.000000 27.155000 179.223000
1724 1 0.000000 29.870500 181.938500
1725 1 2.715500 27.155000 181.938500
1726 1 2.715500 29.870500 179.223000
1727 1 1.357750 28.512750 180.580750
1728 1 1.357750 31.228250 183.296250
1729 1 4.073250 28.512750 183.296250
1730 1 4.073250 31.228250 180.580750
1731 1 0.000000 27.155000 184.654000
1732 1 0.000000 29.870500 187.369500
1733 1 2.715500 27.155000 187.369500
1734 1 2.715500 29.870500 184.654000
1735 1 1.357750 28.512750 186.011750
1736 1 1.357750 31.228250 188.727250
1737 1 4.073250 28.512750 188.727250
1738 1 4.073250 31.228250 186.011750
1739 1 0.000000 27.155000 190.085000
1740 1 0.000000 29.870500 192.800500
1741 1 2.715500 27.155000 192.800500
1742 1 2.715500 29.870500 190.085000
1743 1 1.357750 28.512750 191.442750
1744 1 1.357750 31.228250 194.158250
1745 1 4.073250 28.512750 194.158250
1746 1 4.073250 31.228250 191.442750
1747 1 0.000000 27.155000 195.516000
1748 1 0.000000 29.870500 198.231500
1749 1 2.715500 27.155000 198.231500
1750 1 2.715500 29.870500 195.516000
1751 1 1.357750 28.512750 196.873750
1752 1 1.357750 31.228250 199.589250
1753 1 4.073250 28.512750 199.589250
1754 1 4.073250 31.228250 196.873750
1755 1 0.000000 27.155000 200.947000
1756 1 0.000000 29.870500 203.662500
1757 1 2.715500 27.155000 203.662500
1758 1 2.715500 29.870500 200.947000
1759 1 1.357750 28.512750 202.304750
1760 1 1.357750 31.228250 205.020250
1761 1 4.073250 28.512750 205.020250
1762 1 4.073250 31.228250 202.304750
1763 1 0.000000 27.155000 206.378000
1764 1 0.000000 29.870500 209.093500
1765 1 2.715500 27.155000 209.093500
1766 1 2.715500 29.870500 206.378000
1767 1 1.357750 28.512750 207.735750
1768 1 1.357750 31.228250 210.451250
1769 1 4.073250 28.512750 210.451250
1770 1 4.073250 31.228250 207.735750
1771 1 0.000000 27.155000 211.809000
1772 1 0.000000 29.870500 214.524500
1773 1 2.715500 27.155000 214.524500
1774 1 2.715500 29.870500 211.809000
1775 1 1.357750 28.512750 213.166750
1776 1 1.357750 31.228250 215.882250
1777 1 4.073250 28.512750 215.882250
1778 1 4.073250 31.228250 213.166750
1779 1 0.000000 27.155000 217.240000
1780 1 0.000000 29.870500 219.955500
1781 1 2.715500 27.155000 219.955500
1782 1 2.715500 29.870500 217.240000
1783 1 1.357750 28.512750 218.597750
1784 1 1.357750 31.228250 221.313250
1785 1 4.073250 28.512750 221.313250
1786 1 4.073250 31.228250 218.597750
1787 1 0.000000 27.155000 222.671000
1788 1 0.000000 29.870500 225.386500
1789 1 2.715500 27.155000 225.386500
1790 1 2.715500 29.870500 222.671000
1791 1 1.357750 28.512750 224.028750
1792 1 1.357750 31.228250 226.744250
1793 1 4.073250 28.512750 226.744250
1794 1 4.073250 31.228250 224.028750
1795 1 0.000000 27.155000 228.102000
1796 1 0.000000 29.870500 230.817500
1797 1 2.715500 27.155000 230.817500
1798 1 2.715500 29.870500 228.102000
1799 1 1.357750 28.512750 229.459750
1800 1 1.357750 31.228250 232.175250
1801 1 4.073250 28.512750 232.175250
1802 1 4.073250 31.228250 229.459750
1803 1 0.000000 27.155000 233.533000
1804 1 0.000000 29.870500 236.248500
1805 1 2.715500 27.155000 236.248500
1806 1 2.715500 29.870500 233.533000
1807 1 1.357750 28.512750 234.890750
1808 1 1.357750 31.228250 237.606250
1809 1 4.073250 28.512750 237.606250
1810 1 4.073250 31.228250 234.890750
1811 1 0.000000 27.155000 238.964000
1812 1 0.000000 29.870500 241.679500
1813 1 2.715500 27.155000 241.679500
1814 1 2.715500 29.870500 238.964000
1815 1 1.357750 28.512750 240.321750
1816 1 1.357750 31.228250 243.037250
1817 1 4.073250 28.512750 243.037250
1818 1 4.073250 31.228250 240.321750
1819 1 0.000000 27.155000 244.395000
1820 1 0.000000 29.870500 247.110500
1821 1 2.715500 27.155000 247.110500
1822 1 2.715500 29.870500 244.395000
1823 1 1.357750 28.512750 245.752750
1824 1 1.357750 31.228250 248.468250
1825 1 4.073250 28.512750 248.468250
1826 1 4.073250 31.228250 245.752750
1827 1 0.000000 27.155000 249.826000
1828 1 0.000000 29.870500 252.541500
1829 1 2.715500 27.155000 252.541500
1830 1 2.715500 29.870500 249.826000
1831 1 1.357750 28.512750 251.183750
1832 1 1.357750 31.228250 253.899250
1833 1 4.073250 28.512750 253.899250
1834 1 4.073250 31.228250 251.183750
1835 1 0.000000 27.155000 255.257000
1836 1 0.000000 29.870500 257.972500
1837 1 2.715500 27.155000 257.972500
1838 1 2.715500 29.870500 255.257000
1839 1 1.357750 28.512750 256.614750
1840 1 1.357750 31.228250 259.330250
1841 1 4.073250 28.512750 259.330250
1842 1 4.073250 31.228250 256.614750
1843 1 0.000000 32.586000 0.000000
1844 1 0.000000 35.301500 2.715500
1845 1 2.715500 32.586000 2.715500
1846 1 2.715500 35.301500 0.000000
1847 1 1.357750 33.943750 1.357750
1848 1 1.357750 36.659250 4.073250
1849 1 4.073250 33.943750 4.073250
1850 1 4.073250 36.659250 1.357750
1851 1 0.000000 32.586000 5.431000
1852 1 0.000000 35.301500 8.146500
1853 1 2.715500 32.586000 8.146500
1854 1 2.715500 35.301500 5.431000
1855 1 1.357750 33.943750 6.788750
1856 1 1.357750 36.659250 9.504250
1857 1 4.073250 33.943750 9.504250
1858 1 4.073250 36.659250 6.788750
1859 1 0.000000 32.586000 10.862000
1860 1 0.000000 35.301500 13.577500
1861 1 2.715500 32.586000 13.577500
1862 1 2.715500 35.301500 10.862000
1863 1 1.357750 33.943750 12.219750
1864 1 1.357750 36.659250 14.935250
1865 1 4.073250 33.943750 14.935250
1866 1 4.073250 36.659250 12.219750
1867 1 0.000000 32.586000 16.293000
1868 1 0.000000 35.301500 19.008500
1869 1 2.715500 32.586000 19.008500
1870 1 2.715500 35.301500 16.293000
1871 1 1.357750 33.943750 17.650750
1872 1 1.357750 36.659250 20.366250
1873 1 4.073250 33.943750 20.366250
1874 1 4.073250 36.659250 17.650750
1875 1 0.000000 32.586000 21.724000
1876 1 0.000000 35.301500 24.439500
1877 1 2.715500 32.586000 24.439500
1878 1 2.715500 35.301500 21.724000
1879 1 1.357750 33.943750 23.081750
1880 1 1.357750 36.659250 25.797250
1881 1 4.073250 33.943750 25.797250
1882 1 4.073250 36.659250 23.081750
1883 1 0.000000 32.586000 27.155000
1884 1 0.000000 35.301500 29.870500
1885 1 2.715500 32.586000 29.870500
1886 1 2.715500 35.301500 27.155000
1887 1 1.357750 33.943750 28.512750
1888 1 1.357750 36.659250 31.228250
1889 1 4.073250 33.943750 31.228250
1890 1 4.073250 36.659250 28.512750
1891 1 0.000000 32.586000 32.586000
1892 1 0.000000 35.301500 35.301500
1893 1 2.715500 32.586000 35.301500
1894 1 2.715500 35.301500 32.586000
1895 1 1.357750 33.943750 33.943750
1896 1 1.357750 36.659250 36.659250
1897 1 4.073250 33.943750 36.659250
1898 1 4.073250 36.659250 33.943750
1899 1 0.000000 32.586000 38.017000
1900 1 0.000000 35.301500 40.732500
1901 1 2.715500 32.586000 40.732500
1902 1 2.715500 35.301500 38.017000
1903 1 1.357750 33.943750 39.374750
1904 1 1.357750 36.659250 42.090250
1905 1 4.073250 33.943750 42.090250
1906 1 4.073250 36.659250 39.374750
1907 1 0.000000 32.586000 43.448000
1908 1 0.000000 35.301500 46.163500
1909 1 2.715500 32.586000 46.163500
1910 1 2.715500 35.301500 43.448000
1911 1 1.357750 33.943750 44.805750
1912 1 1.357750 36.659250 47.521250
1913 1 4.073250 33.943750 47.521250
1914 1 4.073250 36.659250 44.805750
1915 1 0.000000 32.586000 48.879000
1916 1 0.000000 35.301500 51.594500
1917 1 2.715500 32.586000 51.594500
1918 1 2.715500 35.301500 48.879000
1919 1 1.357750 33.943750 50.236750
1920 1 1.357750 36.659250 52.952250
1921 1 4.073250 33.943750 52.952250
1922 1 4.073250 36.659250 50.236750
1923 1 0.000000 32.586000 54.310000
1924 1 0.000000 35.301500 57.025500
1925 1 2.715500 32.586000 57.025500
1926 1 2.715500 35.301500 54.310000
1927 1 1.357750 33.943750 55.667750
1928 1 1.357750 36.659250 58.383250
1929 1 4.073250 33.943750 58.383250
1930 1 4.073250 36.659250 55.667750
1931 1 0.000000 32.586000 59.741000
1932 1 0.000000 35.301500 62.456500
1933 1 2.715500 32.586000 62.456500
1934 1 2.715500 35.301500 59.741000
1935 1 1.357750 33.943750 61.098750
1936 1 1.357750 36.659250 63.814250
1937 1 4.073250 33.943750 63.814250
1938 1 4.073250 36.659250 61.098750
1939 1 0.000000 32.586000 65.172000
1940 1 0.000000 35.301500 67.887500
1941 1 2.715500 32.586000 67.887500
1942 1 2.715500 35.301500 65.172000
1943 1 1.357750 33.943750 66.529750
1944 1 1.357750 36.659250 69.245250
1945 1 4.073250 33.943750 69.245250
1946 1 4.073250 36.659250 66.529750
1947 1 0.000000 32.586000 70.603000
1948 1 0.000000 35.301500 73.318500
1949 1 2.715500 32.586000 73.318500
1950 1 2.715500 35.301500 70.603000
1951 1 1.357750 33.943750 71.960750
1952 1 1.357750 36.659250 74.676250
1953 1 4.073250 33.943750 74.676250
1954 1 4.073250 36.659250 71.960750
1955 1 0.000000 32.586000 76.034000
1956 1 0.000000 35.301500 78.749500
1957 1 2.715500 32.586000 78.749500
1958 1 2.715500 35.301500 76.034000
1959 1 1.357750 33.943750 77.391750
1960 1 1.357750 36.659250 80.107250
1961 1 4.073250 33.943750 80.107250
1962 1 4.073250 36.659250 77.391750
1963 1 0.000000 32.586000 81.465000
1964 1 0.000000 35.301500 84.180500
1965 1 2.715500 32.586000 84.180500
1966 1 2.715500 35.301500 81.465000
1967 1 1.357750 33.943750 82.822750
1968 1 1.357750 36.659250 85.538250
1969 1 4.073250 33.943750 85.538250
1970 1 4.073250 36.659250 82.822750
1971 1 0.000000 32.586000 86.896000
1972 1 0.000000 35.301500 89.611500
1973 1 2.715500 32.586000 89.611500
1974 1 2.715500 35.301500 86.896000
1975 1 1.357750 33.943750 88.253750
1976 1 1.357750 36.659250 90.969250
1977 1 4.073250 33.943750 90.969250
1978 1 4.073250 36.659250 88.253750
1979 1 0.000000 32.586000 92.327000
1980 1 0.000000 35.301500 95.042500
1981 1 2.715500 32.586000 95.042500
1982 1 2.715500 35.301500 92.327000
1983 1 1.357750 33.943750 93.684750
1984 1 1.357750 36.659250 96.400250
1985 1 4.073250 33.943750 96.400250
1986 1 4.073250 36.659250 93.684750
1987 1 0.000000 32.586000 97.758000
1988 1 0.000000 35.301500 100.473500
1989 1 2.715500 32.586000 100.473500
1990 1 2.715500 35.301500 97.758000
1991 1 1.357750 33.943750 99.115750
1992 1 1.357750 36.659250 101.831250
1993 1 4.073250 33.943750 101.831250
1994 1 4.073250 36.659250 99.115750
1995 1 0.000000 32.586000 103.189000
1996 1 0.000000 35.301500 105.904500
1997 1 2.715500 32.586000 105.904500
1998 1 2.715500 35.301500 103.189000
1999 1 1.357750 33.943750 104.546750
2000 1 1.357750 36.659250 107.262250
2001 1 4.073250 33.943750 107.262250
2002 1 4.073250 36.659250 104.546750
2003 1 0.000000 32.586000 108.620000
2004 1 0.000000 35.301500 111.335500
2005 1 2.715500 32.586000 111.335500
2006 1 2.715500 35.301500 108.620000
2007 1 1.357750 33.943750 109.977750
2008 1 1.357750 36.659250 112.693250
2009 1 4.073250 33.943750 112.693250
2010 1 4.073250 36.659250 109.977750
2011 1 0.000000 32.586000 114.051000
2012 1 0.000000 35.301500 116.766500
2013 1 2.715500 32.586000 116.766500
2014 1 2.715500 35.301500 114.051000
2015 1 1.357750 33.943750 115.408750
2016 1 1.357750 36.659250 118.124250
2017 1 4.073250 33.943750 118.124250
2018 1 4.073250 36.659250 115.408750
2019 1 0.000000 32.586000 119.482000
2020 1 0.000000 35.301500 122.197500
2021 1 2.715500 32.586000 122.197500
2022 1 2.715500 35.301500 119.482000
2023 1 1.357750 33.943750 120.839750
2024 1 1.357750 36.659250 123.555250
2025 1 4.073250 33.943750 123.555250
2026 1 4.073250 36.659250 120.839750
2027 1 0.000000 32.586000 124.913000
2028 1 0.000000 35.301500 127.628500
2029 1 2.715500 32.586000 127.628500
2030 1 2.715500 35.301500 124.913000
2031 1 1.357750 33.943750 126.270750
2032 1 1.357750 36.659250 128.986250
2033 1 4.073250 33.943750 128.986250
2034 1 4.073250 36.659250 126.270750
2035 1 0.000000 32.586000 130.344000
2036 1 0.000000 35.301500 133.059500
2037 1 2.715500 32.586000 133.059500
2038 1 2.715500 35.301500 130.344000
2039 1 1.357750 33.943750 131.701750
2040 1 1.357750 36.659250 134.417250
2041 1 4.073250 33.943750 134.417250
2042 1 4.073250 36.659250 131.701750
2043 1 0.000000 32.586000 135.775000
2044 1 0.000000 35.301500 138.490500
2045 1 2.715500 32.586000 138.490500
2046 1 2.715500 35.301500 135.775000
2047 1 1.357750 33.943750 137.132750
2048 1 1.357750 36.659250 139.848250
2049 1 4.073250 33.943750 139.848250
2050 1 4.073250 36.659250 137.132750
2051 1 0.000000 32.586000 141.206000
2052 1 0.000000 35.301500 143.921500
2053 1 2.715500 32.586000 143.921500
2054 1 2.715500 35.301500 141.206000
2055 1 1.357750 33.943750 142.563750
2056 1 1.357750 36.659250 145.279250
2057 1 4.073250 33.943750 145.279250
2058 1 4.073250 36.659250 142.563750
2059 1 0.000000 32.586000 146.637000
2060 1 0.000000 35.301500 149.352500
2061 1 2.715500 32.586000 149.352500
2062 1 2.715500 35.301500 146.637000
2063 1 1.357750 33.943750 147.994750
2064 1 1.357750 36.659250 150.710250
2065 1 4.073250 33.943750 150.710250
2066 1 4.073250 36.659250 147.994750
2067 1 0.000000 32.586000 152.068000
2068 1 0.000000 35.301500 154.783500
2069 1 2.715500 32.586000 154.783500
2070 1 2.715500 35.301500 152.068000
2071 1 1.357750 33.943750 153.425750
2072 1 1.357750 36.659250 156.141250
2073 1 4.073250 33.943750 156.141250
2074 1 4.073250 36.659250 153.425750
2075 1 0.000000 32.586000 157.499000
2076 1 0.000000 35.301500 160.214500
2077 1 2.715500 32.586000 160.214500
2078 1 2.715500 35.301500 157.499000
2079 1 1.357750 33.943750 158.856750
2080 1 1.357750 36.659250 161.572250
2081 1 4.073250 33.943750 161.572250
2082 1 4.073250 36.659250 158.856750
2083 1 0.000000 32.586000 162.930000
2084 1 0.000000 35.301500 165.645500
2085 1 2.715500 32.586000 165.645500
2086 1 2.715500 35.301500 162.930000
2087 1 1.357750 33.943750 164.287750
2088 1 1.357750 36.659250 167.003250
2089 1 4.073250 33.943750 167.003250
2090 1 4.073250 36.659250 164.287750
2091 1 0.000000 32.586000 168.361000
2092 1 0.000000 35.301500 171.076500
2093 1 2.715500 32.586000 171.076500
2094 1 2.715500 35.301500 168.361000
2095 1 1.357750 33.943750 169.718750
2096 1 1.357750 36.659250 172.434250
2097 1 4.073250 33.943750 172.434250
2098 1 4.073250 36.659250 169.718750
2099 1 0.000000 32.586000 173.792000
2100 1 0.000000 35.301500 176.507500
2101 1 2.715500 32.586000 176.507500
2102 1 2.715500 35.301500 173.792000
2103 1 1.357750 33.943750 175.149750
2104 1 1.357750 36.659250 177.865250
2105 1 4.073250 33.943750 177.865250
2106 1 4.073250 36.659250 175.149750
2107 1 0.000000 32.586000 179.223000
2108 1 0.000000 35.301500 181.938500
2109 1 2.715500 32.586000 181.938500
2110 1 2.715500 35.301500 179.223000
2111 1 1.357750 33.943750 180.580750
2112 1 1.357750 36.659250 183.296250
2113 1 4.073250 33.943750 183.296250
2114 1 4.073250 36.659250 180.580750
2115 1 0.000000 32.586000 184.654000
2116 1 0.000000 35.301500 187.369500
2117 1 2.715500 32.586000 187.369500
2118 1 2.715500 35.301500 184.654000
2119 1 1.357750 33.943750 186.011750
2120 1 1.357750 36.659250 188.727250
2121 1 4.073250 33.943750 188.727250
2122 1 4.073250 36.659250 186.011750
2123 1 0.000000 32.586000 190.085000
2124 1 0.000000 35.301500 192.800500
2125 1 2.715500 32.586000 192.800500
2126 1 2.715500 35.301500 190.085000
2127 1 1.357750 33.943750 191.442750
2128 1 1.357750 36.659250 194.158250
2129 1 4.073250 33.943750 194.158250
2130 1 4.073250 36.659250 191.442750
2131 1 0.000000 32.586000 195.516000
2132 1 0.000000 35.301500 198.231500
2133 1 2.715500 32.586000 198.231500
2134 1 2.715500 35.301500 195.516000
2135 1 1.357750 33.943750 196.873750
2136 1 1.357750 36.659250 199.589250
2137 1 4.073250 33.943750 199.589250
2138 1 4.073250 36.659250 196.873750
2139 1 0.000000 32.586000 200.947000
2140 1 0.000000 35.301500 203.662500
2141 1 2.715500 32.586000 203.662500
2142 1 2.715500 35.301500 200.947000
2143 1 1.357750 33.943750 202.304750
2144 1 1.357750 36.659250 205.020250
2145 1 4.073250 33.943750 205.020250
2146 1 4.073250 36.659250 202.304750
2147 1 0.000000 32.586000 206.378000
2148 1 0.000000 35.301500 209.093500
2149 1 2.715500 32.586000 209.093500
2150 1 2.715500 35.301500 206.378000
2151 1 1.357750 33.943750 207.735750
2152 1 1.357750 36.659250 210.451250
2153 1 4.073250 33.943750 210.451250
2154 1 4.073250 36.659250 207.735750
2155 1 0.000000 32.586000 211.809000
2156 1 0.000000 35.301500 214.524500
2157 1 2.715500 32.586000 214.524500
2158 1 2.715500 35.301500 211.809000
2159 1 1.357750 33.943750 213.166750
2160 1 1.357750 36.659250 215.882250
2161 1 4.073250 33.943750 215.882250
2162 1 4.073250 36.659250 213.166750
2163 1 0.000000 32.586000 217.240000
2164 1 0.000000 35.301500 219.955500
2165 1 2.715500 32.586000 219.955500
2166 1 2.715500 35.301500 217.240000
2167 1 1.357750 33.943750 218.597750
2168 1 1.357750 36.659250 221.313250
2169 1 4.073250 33.943750 221.313250
2170 1 4.073250 36.659250 218.597750
2171 1 0.000000 32.586000 222.671000
2172 1 0.000000 35.301500 225.386500
2173 1 2.715500 32.586000 225.386500
2174 1 2.715500 35.301500 222.671000
2175 1 1.357750 33.943750 224.028750
2176 1 1.357750 36.659250 226.744250
2177 1 4.073250 33.943750 226.744250
2178 1 4.073250 36.659250 224.028750
2179 1 0.000000 32.586000 228.102000
2180 1 0.000000 35.301500 230.817500
2181 1 2.715500 32.586000 230.817500
2182 1 2.715500 35.301500 228.102000
2183 1 1.357750 33.943750 229.459750
2184 1 1.357750 36.659250 232.175250
2185 1 4.073250 33.943750 232.175250
2186 1 4.073250 36.659250 229.459750
2187 1 0.000000 32.586000 233.533000
2188 1 0.000000 35.301500 236.248500
2189 1 2.715500 32.586000 236.248500
2190 1 2.715500 35.301500 233.533000
2191 1 1.357750 33.943750 234.890750
2192 1 1.357750 36.659250 237.606250
2193 1 4.073250 33.943750 237.606250
2194 1 4.073250 36.659250 234.890750
2195 1 0.000000 32.586000 238.964000
2196 1 0.000000 35.301500 241.679500
2197 1 2.715500 32.586000 241.679500
2198 1 2.715500 35.301500 238.964000
2199 1 1.357750 33.943750 240.321750
2200 1 1.357750 36.659250 243.037250
2201 1 4.073250 33.943750 243.037250
2202 1 4.073250 36.659250 240.321750
2203 1 0.000000 32.586000 244.395000
2204 1 0.000000 35.301500 247.110500
2205 1 2.715500 32.586000 247.110500
2206 1 2.715500 35.301500 244.395000
2207 1 1.357750 33.943750 245.752750
2208 1 1.357750 36.659250 248.468250
2209 1 4.073250 33.943750 248.468250
2210 1 4.073250 36.659250 245.752750
2211 1 0.000000 32.586000 249.826000
2212 1 0.000000 35.301500 252.541500
2213 1 2.715500 32.586000 252.541500
2214 1 2.715500 35.301500 249.826000
2215 1 1.357750 33.943750 251.183750
2216 1 1.357750 36.659250 253.899250
2217 1 4.073250 33.943750 253.899250
2218 1 4.073250 36.659250 251.183750
2219 1 0.000000 32.586000 255.257000
2220 1 0.000000 35.301500 257.972500
2221 1 2.715500 32.586000 257.972500
2222 1 2.715500 35.301500 255.257000
2223 1 1.357750 33.943750 256.614750
2224 1 1.357750 36.659250 259.330250
2225 1 4.073250 33.943750 259.330250
2226 1 4.073250 36.659250 256.614750
2227 1 0.000000 38.017000 0.000000
2228 1 0.000000 40.732500 2.715500
2229 1 2.715500 38.017000 2.715500
2230 1 2.715500 40.732500 0.000000
2231 1 1.357750 39.374750 1.357750
2232 1 1.357750 42.090250 4.073250
2233 1 4.073250 39.374750 4.073250
2234 1 4.073250 42.090250 1.357750
2235 1 0.000000 38.017000 5.431000
2236 1 0.000000 40.732500 8.146500
2237 1 2.715500 38.017000 8.146500
2238 1 2.715500 40.732500 5.431000
2239 1 1.357750 39.374750 6.788750
2240 1 1.357750 42.090250 9.504250
2241 1 4.073250 39.374750 9.504250
2242 1 4.073250 42.090250 6.788750
2243 1 0.000000 38.017000 10.862000
2244 1 0.000000 40.732500 13.577500
2245 1 2.715500 38.017000 13.577500
2246 1 2.715500 40.732500 10.862000
2247 1 1.357750 39.374750 12.219750
2248 1 1.357750 42.090250 14.935250
2249 1 4.073250 39.374750 14.935250
2250 1 4.073250 42.090250 12.219750
2251 1 0.000000 38.017000 16.293000
2252 1 0.000000 40.732500 19.008500
2253 1 2.715500 38.017000 19.008500
2254 1 2.715500 40.732500 16.293000
2255 1 1.357750 39.374750 17.650750
2256 1 1.357750 42.090250 20.366250
2257 1 4.073250 39.374750 20.366250
2258 1 4.073250 42.090250 17.650750
2259 1 0.000000 38.017000 21.724000
2260 1 0.000000 40.732500 24.439500
2261 1 2.715500 38.017000 24.439500
2262 1 2.715500 40.732500 21.724000
2263 1 1.357750 39.374750 23.081750
2264 1 1.357750 42.090250 25.797250
2265 1 4.073250 39.374750 25.797250
2266 1 4.073250 42.090250 23.081750
2267 1 0.000000 38.017000 27.155000
2268 1 0.000000 40.732500 29.870500
2269 1 2.715500 38.017000 29.870500
2270 1 2.715500 40.732500 27.155000
2271 1 1.357750 39.374750 28.512750
2272 1 1.357750 42.090250 31.228250
2273 1 4.073250 39.374750 31.228250
2274 1 4.073250 42.090250 28.512750
2275 1 0.000000 38.017000 32.586000
2276 1 0.000000 40.732500 35.301500
2277 1 2.715500 38.017000 35.301500
2278 1 2.715500 40.732500 32.586000
2279 1 1.357750 39.374750 33.943750
2280 1 1.357750 42.090250 36.659250
2281 1 4.073250 39.374750 36.659250
2282 1 4.073250 42.090250 33.943750
2283 1 0.000000 38.017000 38.017000
2284 1 0.000000 40.732500 40.732500
2285 1 2.715500 38.017000 40.732500
2286 1 2.715500 40.732500 38.017000
2287 1 1.357750 39.374750 39.374750
2288 1 1.357750 42.090250 42.090250
2289 1 4.073250 39.374750 42.090250
2290 1 4.073250 42.090250 39.374750
2291 1 0.000000 38.017000 43.448000
2292 1 0.000000 40.732500 46.163500
2293 1 2.715500 38.017000 46.163500
2294 1 2.715500 40.732500 43.448000
2295 1 1.357750 39.374750 44.805750
2296 1 1.357750 42.090250 47.521250
2297 1 4.073250 39.374750 47.521250
2298 1 4.073250 42.090250 44.805750
2299 1 0.000000 38.017000 48.879000
2300 1 0.000000 40.732500 51.594500
2301 1 2.715500 38.017000 51.594500
2302 1 2.715500 40.732500 48.879000
2303 1 1.357750 39.374750 50.236750
2304 1 1.357750 42.090250 52.952250
2305 1 4.073250 39.374750 52.952250
2306 1 4.073250 42.090250 50.236750
2307 1 0.000000 38.017000 54.310000
2308 1 0.000000 40.732500 57.025500
2309 1 2.715500 38.017000 57.025500
2310 1 2.715500 40.732500 54.310000
2311 1 1.357750 39.374750 55.667750
2312 1 1.357750 42.090250 58.383250
2313 1 4.073250 39.374750 58.383250
2314 1 4.073250 42.090250 55.667750
2315 1 0.000000 38.017000 59.741000
2316 1 0.000000 40.732500 62.456500
2317 1 2.715500 38.017000 62.456500
2318 1 2.715500 40.732500 59.741000
2319 1 1.357750 39.374750 61.098750
2320 1 1.357750 42.090250 63.814250
2321 1 4.073250 39.374750 63.814250
2322 1 4.073250 42.090250 61.098750
2323 1 0.000000 38.017000 65.172000
2324 1 0.000000 40.732500 67.887500
2325 1 2.715500 38.017000 67.887500
2326 1 2.715500 40.732500 65.172000
2327 1 1.357750 39.374750 66.529750
2328 1 1.357750 42.090250 69.245250
2329 1 4.073250 39.374750 69.245250
2330 1 4.073250 42.090250 66.529750
2331 1 0.000000 38.017000 70.603000
2332 1 0.000000 40.732500 73.318500
2333 1 2.715500 38.017000 73.318500
2334 1 2.715500 40.732500 70.603000
2335 1 1.357750 39.374750 71.960750
2336 1 1.357750 42.090250 74.676250
2337 1 4.073250 39.374750 74.676250
2338 1 4.073250 42.090250 71.960750
2339 1 0.000000 38.017000 76.034000
2340 1 0.000000 40.732500 78.749500
2341 1 2.715500 38.017000 78.749500
2342 1 2.715500 40.732500 76.034000
2343 1 1.357750 39.374750 77.391750
2344 1 1.357750 42.090250 80.107250
2345 1 4.073250 39.374750 80.107250
2346 1 4.073250 42.090250 77.391750
2347 1 0.000000 38.017000 81.465000
2348 1 0.000000 40.732500 84.180500
2349 1 2.715500 38.017000 84.180500
2350 1 2.715500 40.732500 81.465000
2351 1 1.357750 39.374750 82.822750
2352 1 1.357750 42.090250 85.538250
2353 1 4.073250 39.374750 85.538250
2354 1 4.073250 42.090250 82.822750
2355 1 0.000000 38.017000 86.896000
2356 1 0.000000 40.732500 89.611500
2357 1 2.715500 38.017000 89.611500
2358 1 2.715500 40.732500 86.896000
2359 1 1.357750 39.374750 88.253750
2360 1 1.357750 42.090250 90.969250
2361 1 4.073250 39.374750 90.969250
2362 1 4.073250 42.090250 88.253750
2363 1 0.000000 38.017000 92.327000
2364 1 0.000000 40.732500 95.042500
2365 1 2.715500 38.017000 95.042500
2366 1 2.715500 40.732500 92.327000
2367 1 1.357750 39.374750 93.684750
2368 1 1.357750 42.090250 96.400250
2369 1 4.073250 39.374750 96.400250
2370 1 4.073250 42.090250 93.684750
2371 1 0.000000 38.017000 97.758000
2372 1 0.000000 40.732500 100.473500
2373 1 2.715500 38.017000 100.473500
2374 1 2.715500 40.732500 97.758000
2375 1 1.357750 39.374750 99.115750
2376 1 1.357750 42.090250 101.831250
2377 1 4.073250 39.374750 101.831250
2378 1 4.073250 42.090250 99.115750
2379 1 0.000000 38.017000 103.189000
2380 1 0.000000 40.732500 105.904500
2381 1 2.715500 38.017000 105.904500
2382 1 2.715500 40.732500 103.189000
2383 1 1.357750 39.374750 104.546750
2384 1 1.357750 42.090250 107.262250
2385 1 4.073250 39.374750 107.262250
2386 1 4.073250 42.090250 104.546750
2387 1 0.000000 38.017000 108.620000
2388 1 0.000000 40.732500 111.335500
2389 1 2.715500 38.017000 111.335500
2390 1 2.715500 40.732500 108.620000
2391 1 1.357750 39.374750 109.977750
2392 1 1.357750 42.090250 112.693250
2393 1 4.073250 39.374750 112.693250
2394 1 4.073250 42.090250 109.977750
2395 1 0.000000 38.017000 114.051000
2396 1 0.000000 40.732500 116.766500
2397 1 2.715500 38.017000 116.766500
2398 1 2.715500 40.732500 114.051000
2399 1 1.357750 39.374750 115.408750
2400 1 1.357750 42.090250 118.124250
2401 1 4.073250 39.374750 118.124250
2402 1 4.073250 42.090250 115.408750
2403 1 0.000000 38.017000 119.482000
2404 1 0.000000 40.732500 122.197500
2405 1 2.715500 38.017000 122.197500
2406 1 2.715500 40.732500 119.482000
2407 1 1.357750 39.374750 120.839750
2408 1 1.357750 42.090250 123.555250
2409 1 4.073250 39.374750 123.555250
2410 1 4.073250 42.090250 120.839750
2411 1 0.000000 38.017000 124.913000
2412 1 0.000000 40.732500 127.628500
2413 1 2.715500 38.017000 127.628500
2414 1 2.715500 40.732500 124.913000
2415 1 1.357750 39.374750 126.270750
2416 1 1.357750 42.090250 128.986250
2417 1 4.073250 39.374750 128.986250
2418 1 4.073250 42.090250 126.270750
2419 1 0.000000 38.017000 130.344000
2420 1 0.000000 40.732500 133.059500
2421 1 2.715500 38.017000 133.059500
2422 1 2.715500 40.732500 130.344000
2423 1 1.357750 39.374750 131.701750
2424 1 1.357750 42.090250 134.417250
2425 1 4.073250 39.374750 134.417250
2426 1 4.073250 42.090250 131.701750
2427 1 0.000000 38.017000 135.775000
2428 1 0.000000 40.732500 138.490500
2429 1 2.715500 38.017000 138.490500
2430 1 2.715500 40.732500 135.775000
2431 1 1.357750 39.374750 137.132750
2432 1 1.357750 42.090250 139.848250
2433 1 4.073250 39.374750 139.848250
2434 1 4.073250 42.090250 137.132750
2435 1 0.000000 38.017000 141.206000
2436 1 0.000000 40.732500 143.921500
2437 1 2.715500 38.017000 143.921500
2438 1 2.715500 40.732500 141.206000
2439 1 1.357750 39.374750 142.563750
2440 1 1.357750 42.090250 145.279250
2441 1 4.073250 39.374750 145.279250
2442 1 4.073250 42.090250 142.563750
2443 1 0.000000 38.017000 146.637000
2444 1 0.000000 40.732500 149.352500
2445 1 2.715500 38.017000 149.352500
2446 1 2.715500 40.732500 146.637000
2447 1 1.357750 39.374750 147.994750
2448 1 1.357750 42.090250 150.710250
2449 1 4.073250 39.374750 150.710250
2450 1 4.073250 42.090250 147.994750
2451 1 0.000000 38.017000 152.068000
2452 1 0.000000 40.732500 154.783500
2453 1 2.715500 38.017000 154.783500
2454 1 2.715500 40.732500 152.068000
2455 1 1.357750 39.374750 153.425750
2456 1 1.357750 42.090250 156.141250
2457 1 4.073250 39.374750 156.141250
2458 1 4.073250 42.090250 153.425750
2459 1 0.000000 38.017000 157.499000
2460 1 0.000000 40.732500 160.214500
2461 1 2.715500 38.017000 160.214500
2462 1 2.715500 40.732500 157.499000
2463 1 1.357750 39.374750 158.856750
2464 1 1.357750 42.090250 161.572250
2465 1 4.073250 39.374750 161.572250
2466 1 4.073250 42.090250 158.856750
2467 1 0.000000 38.017000 162.930000
2468 1 0.000000 40.732500 165.645500
2469 1 2.715500 38.017000 165.645500
2470 1 2.715500 40.732500 162.930000
2471 1 1.357750 39.374750 164.287750
2472 1 1.357750 42.090250 167.003250
2473 1 4.073250 39.374750 167.003250
2474 1 4.073250 42.090250 164.287750
2475 1 0.000000 38.017000 168.361000
2476 1 0.000000 40.732500 171.076500
2477 1 2.715500 38.017000 171.076500
2478 1 2.715500 40.732500 168.361000
2479 1 1.357750 39.374750 169.718750
2480 1 1.357750 42.090250 172.434250
2481 1 4.073250 39.374750 172.434250
2482 1 4.073250 42.090250 169.718750
2483 1 0.000000 38.017000 173.792000
2484 1 0.000000 40.732500 176.507500
2485 1 2.715500 38.017000 176.507500
2486 1 2.715500 40.732500 173.792000
2487 1 1.357750 39.374750 175.149750
2488 1 1.357750 42.090250 177.865250
2489 1 4.073250 39.374750 177.865250
2490 1 4.073250 42.090250 175.149750
2491 1 0.000000 38.017000 179.223000
2492 1 0.000000 40.732500 181.938500
2493 1 2.715500 38.017000 181.938500
2494 1 2.715500 40.732500 179.223000
2495 1 1.357750 39.374750 180.580750
2496 1 1.357750 42.090250 183.296250
2497 1 4.073250 39.374750 183.296250
2498 1 4.073250 42.090250 180.580750
2499 1 0.000000 38.017000 184.654000
2500 1 0.000000 40.732500 187.369500
2501 1 2.715500 38.017000 187.369500
2502 1 2.715500 40.732500 184.654000
2503 1 1.357750 39.374750 186.011750
2504 1 1.357750 42.090250 188.727250
2505 1 4.073250 39.374750 188.727250
2506 1 4.073250 42.090250 186.011750
2507 1 0.000000 38.017000 190.085000
2508 1 0.000000 40.732500 192.800500
2509 1 2.715500 38.017000 192.800500
2510 1 2.715500 40.732500 190.085000
2511 1 1.357750 39.374750 191.442750
2512 1 1.357750 42.090250 194.158250
2513 1 4.073250 39.374750 194.158250
2514 1 4.073250 42.090250 191.442750
2515 1 0.000000 38.017000 195.516000
2516 1 0.000000 40.732500 198.231500
2517 1 2.715500 38.017000 198.231500
2518 1 2.715500 40.732500 195.516000
2519 1 1.357750 39.374750 196.873750
2520 1 1.357750 42.090250 199.589250
2521 1 4.073250 39.374750 199.589250
2522 1 4.073250 42.090250 196.873750
2523 1 0.000000 38.017000 200.947000
2524 1 0.000000 40.732500 203.662500
2525 1 2.715500 38.017000 203.662500
2526 1 2.715500 40.732500 200.947000
2527 1 1.357750 39.374750 202.304750
2528 1 1.357750 42.090250 205.020250
2529 1 4.073250 39.374750 205.020250
2530 1 4.073250 42.090250 202.304750
2531 1 0.000000 38.017000 206.378000
2532 1 0.000000 40.732500 209.093500
2533 1 2.715500 38.017000 209.093500
2534 1 2.715500 40.732500 206.378000
2535 1 1.357750 39.374750 207.735750
2536 1 1.357750 42.090250 210.451250
2537 1 4.073250 39.374750 210.451250
2538 1 4.073250 42.090250 207.735750
2539 1 0.000000 38.017000 211.809000
2540 1 0.000000 40.732500 214.524500
2541 1 2.715500 38.017000 214.524500
2542 1 2.715500 40.732500 211.809000
2543 1 1.357750 39.374750 213.166750
2544 1 1.357750 42.090250 215.882250
2545 1 4.073250 39.374750 215.882250
2546 1 4.073250 42.090250 213.166750
2547 1 0.000000 38.017000 217.240000
2548 1 0.000000 40.732500 219.955500
2549 1 2.715500 38.017000 219.955500
2550 1 2.715500 40.732500 217.240000
2551 1 1.357750 39.374750 218.597750
2552 1 1.357750 42.090250 221.313250
2553 1 4.073250 39.374750 221.313250
2554 1 4.073250 42.090250 218.597750
2555 1 0.000000 38.017000 222.671000
2556 1 0.000000 40.732500 225.386500
2557 1 2.715500 38.017000 225.386500
2558 1 2.715500 40.732500 222.671000
2559 1 1.357750 39.374750 224.028750
2560 1 1.357750 42.090250 226.744250
2561 1 4.073250 39.374750 226.744250
2562 1 4.073250 42.090250 224.028750
2563 1 0.000000 38.017000 228.102000
2564 1 0.000000 40.732500 230.817500
2565 1 2.715500 38.017000 230.817500
2566 1 2.715500 40.732500 228.102000
2567 1 1.357750 39.374750 229.459750
2568 1 1.357750 42.090250 232.175250
2569 1 4.073250 39.374750 232.175250
2570 1 4.073250 42.090250 229.459750
2571 1 0.000000 38.017000 233.533000
2572 1 0.000000 40.732500 236.248500
2573 1 2.715500 38.017000 236.248500
2574 1 2.715500 40.732500 233.533000
2575 1 1.357750 39.374750 234.890750
2576 1 1.357750 42.090250 237.606250
2577 1 4.073250 39.374750 237.606250
2578 1 4.073250 42.090250 234.890750
2579 1 0.000000 38.017000 238.964000
2580 1 0.000000 40.732500 241.679500
2581 1 2.715500 38.017000 241.679500
2582 1 2.715500 40.732500 238.964000
2583 1 1.357750 39.374750 240.321750
2584 1 1.357750 42.090250 243.037250
2585 1 4.073250 39.374750 243.037250
2586 1 4.073250 42.090250 240.321750
2587 1 0.000000 38.017000 244.395000
2588 1 0.000000 40.732500 247.110500
2589 1 2.715500 38.017000 247.110500
2590 1 2.715500 40.732500 244.395000
2591 1 1.357750 39.374750 245.752750
2592 1 1.357750 42.090250 248.468250
2593 1 4.073250 39.374750 248.468250
2594 1 4.073250 42.090250 245.752750
2595 1 0.000000 38.017000 249.826000
2596 1 0.000000 40.732500 252.541500
2597 1 2.715500 38.017000 252.541500
2598 1 2.715500 40.732500 249.826000
2599 1 1.357750 39.374750 251.183750
2600 1 1.357750 42.090250 253.899250
2601 1 4.073250 39.374750 253.899250
2602 1 4.073250 42.090250 251.183750
2603 1 0.000000 38.017000 255.257000
2604 1 0.000000 40.732500 257.972500
2605 1 2.715500 38.017000 257.972500
2606 1 2.715500 40.732500 255.257000
2607 1 1.357750 39.374750 256.614750
2608 1 1.357750 42.090250 259.330250
2609 1 4.073250 39.374750 259.330250
2610 1 4.073250 42.090250 256.614750
2611 1 5.431000 2.715500 24.439500
2612 1 8.146500 0.000000 24.439500
2613 1 6.788750 1.357750 23.081750
2614 1 6.788750 4.073250 25.797250
2615 1 9.504250 1.357750 25.797250
2616 1 9.504250 4.073250 23.081750
2617 1 5.431000 0.000000 27.155000
2618 1 5.431000 2.715500 29.870500
2619 1 8.146500 0.000000 29.870500
2620 1 8.146500 2.715500 27.155000
2621 1 6.788750 1.357750 28.512750
2622 1 6.788750 4.073250 31.228250
2623 1 9.504250 1.357750 31.228250
2624 1 9.504250 4.073250 28.512750
2625 1 5.431000 0.000000 32.586000
2626 1 5.431000 2.715500 35.301500
2627 1 8.146500 0.000000 35.301500
2628 1 8.146500 2.715500 32.586000
2629 1 6.788750 1.357750 33.943750
2630 1 6.788750 4.073250 36.659250
2631 1 9.504250 1.357750 36.659250
2632 1 9.504250 4.073250 33.943750
2633 1 5.431000 0.000000 38.017000
2634 1 5.431000 2.715500 40.732500
2635 1 8.146500 0.000000 40.732500
2636 1 8.146500 2.715500 38.017000
2637 1 6.788750 1.357750 39.374750
2638 1 6.788750 4.073250 42.090250
2639 1 9.504250 1.357750 42.090250
2640 1 9.504250 4.073250 39.374750
2641 1 5.431000 2.715500 67.887500
2642 1 8.146500 0.000000 67.887500
2643 1 6.788750 1.357750 66.529750
2644 1 6.788750 4.073250 69.245250
2645 1 9.504250 1.357750 69.245250
2646 1 9.504250 4.073250 66.529750
2647 1 5.431000 0.000000 70.603000
2648 1 5.431000 2.715500 73.318500
2649 1 8.146500 0.000000 73.318500
2650 1 8.146500 2.715500 70.603000
2651 1 6.788750 1.357750 71.960750
2652 1 6.788750 4.073250 74.676250
2653 1 9.504250 1.357750 74.676250
2654 1 9.504250 4.073250 71.960750
2655 1 5.431000 0.000000 76.034000
2656 1 5.431000 2.715500 78.749500
2657 1 8.146500 0.000000 78.749500
2658 1 8.146500 2.715500 76.034000
2659 1 6.788750 1.357750 77.391750
2660 1 6.788750 4.073250 80.107250
2661 1 9.504250 1.357750 80.107250
2662 1 9.504250 4.073250 77.391750
2663 1 5.431000 0.000000 81.465000
2664 1 5.431000 2.715500 84.180500
2665 1 8.146500 0.000000 84.180500
2666 1 8.146500 2.715500 81.465000
2667 1 6.788750 1.357750 82.822750
2668 1 6.788750 4.073250 85.538250
2669 1 9.504250 1.357750 85.538250
2670 1 9.504250 4.073250 82.822750
2671 1 5.431000 2.715500 111.335500
2672 1 8.146500 0.000000 111.335500
2673 1 6.788750 1.357750 109.977750
2674 1 6.788750 4.073250 112.693250
2675 1 9.504250 1.357750 112.693250
2676 1 9.504250 4.073250 109.977750
2677 1 5.431000 0.000000 114.051000
2678 1 5.431000 2.715500 116.766500
2679 1 8.146500 0.000000 116.766500
2680 1 8.146500 2.715500 114.051000
2681 1 6.788750 1.357750 115.408750
2682 1 6.788750 4.073250 118.124250
2683 1 9.504250 1.357750 118.124250
2684 1 9.504250 4.073250 115.408750
2685 1 5.431000 0.000000 119.482000
2686 1 5.431000 2.715500 122.197500
2687 1 8.146500 0.000000 122.197500
2688 1 8.146500 2.715500 119.482000
2689 1 6.788750 1.357750 120.839750
2690 1 6.788750 4.073250 123.555250
2691 1 9.504250 1.357750 123.555250
2692 1 9.504250 4.073250 120.839750
2693 1 5.431000 0.000000 124.913000
2694 1 5.431000 2.715500 127.628500
2695 1 8.146500 0.000000 127.628500
2696 1 8.146500 2.715500 124.913000
2697 1 6.788750 1.357750 126.270750
2698 1 6.788750 4.073250 128.986250
2699 1 9.504250 1.357750 128.986250
2700 1 9.504250 4.073250 126.270750
2701 1 5.431000 2.715500 154.783500
2702 1 8.146500 0.000000 154.783500
2703 1 6.788750 1.357750 153.425750
2704 1 6.788750 4.073250 156.141250
2705 1 9.504250 1.357750 156.141250
2706 1 9.504250 4.073250 153.425750
2707 1 5.431000 0.000000 157.499000
2708 1 5.431000 2.715500 160.214500
2709 1 8.146500 0.000000 160.214500
2710 1 8.146500 2.715500 157.499000
2711 1 6.788750 1.357750 158.856750
2712 1 6.788750 4.073250 161.572250
2713 1 9.504250 1.357750 161.572250
2714 1 9.504250 4.073250 158.856750
2715 1 5.431000 0.000000 162.930000
2716 1 5.431000 2.715500 165.645500
2717 1 8.146500 0.000000 165.645500
2718 1 8.146500 2.715500 162.930000
2719 1 6.788750 1.357750 164.287750
2720 1 6.788750 4.073250 167.003250
2721 1 9.504250 1.357750 167.003250
2722 1 9.504250 4.073250 164.287750
2723 1 5.431000 0.000000 168.361000
2724 1 5.431000 2.715500 171.076500
2725 1 8.146500 0.000000 171.076500
2726 1 8.146500 2.715500 168.361000
2727 1 6.788750 1.357750 169.718750
2728 1 6.788750 4.073250 172.434250
2729 1 9.504250 1.357750 172.434250
2730 1 9.504250 4.073250 169.718750
2731 1 5.431000 2.715500 198.231500
2732 1 8.146500 0.000000 198.231500
2733 1 6.788750 1.357750 196.873750
2734 1 6.788750 4.073250 199.589250
2735 1 9.504250 1.357750 199.589250
2736 1 9.504250 4.073250 196.873750
2737 1 5.431000 0.000000 200.947000
2738 1 5.431000 2.715500 203.662500
2739 1 8.146500 0.000000 203.662500
2740 1 8.146500 2.715500 200.947000
2741 1 6.788750 1.357750 202.304750
2742 1 6.788750 4.073250 205.020250
2743 1 9.504250 1.357750 205.020250
2744 1 9.504250 4.073250 202.304750
2745 1 5.431000 0.000000 206.378000
2746 1 5.431000 2.715500 209.093500
2747 1 8.146500 0.000000 209.093500
2748 1 8.146500 2.715500 206.378000
2749 1 6.788750 1.357750 207.735750
2750 1 6.788750 4.073250 210.451250
2751 1 9.504250 1.357750 210.451250
2752 1 9.504250 4.073250 207.735750
2753 1 5.431000 0.000000 211.809000
2754 1 5.431000 2.715500 214.524500
2755 1 8.146500 0.000000 214.524500
2756 1 8.146500 2.715500 211.809000
2757 1 6.788750 1.357750 213.166750
2758 1 6.788750 4.073250 215.882250
2759 1 9.504250 1.357750 215.882250
2760 1 9.504250 4.073250 213.166750
2761 1 5.431000 2.715500 241.679500
2762 1 8.146500 0.000000 241.679500
2763 1 6.788750 1.357750 240.321750
2764 1 6.788750 4.073250 243.037250
2765 1 9.504250 1.357750 243.037250
2766 1 9.504250 4.073250 240.321750
2767 1 5.431000 0.000000 244.395000
2768 1 5.431000 2.715500 247.110500
2769 1 8.146500 0.000000 247.110500
2770 1 8.146500 2.715500 244.395000
2771 1 6.788750 1.357750 245.752750
2772 1 6.788750 4.073250 248.468250
2773 1 9.504250 1.357750 248.468250
2774 1 9.504250 4.073250 245.752750
2775 1 5.431000 0.000000 249.826000
2776 1 5.431000 2.715500 252.541500
2777 1 8.146500 0.000000 252.541500
2778 1 8.146500 2.715500 249.826000
2779 1 6.788750 1.357750 251.183750
2780 1 6.788750 4.073250 253.899250
2781 1 9.504250 1.357750 253.899250
2782 1 9.504250 4.073250 251.183750
2783 1 5.431000 0.000000 255.257000
2784 1 5.431000 2.715500 257.972500
2785 1 8.146500 0.000000 257.972500
2786 1 8.146500 2.715500 255.257000
2787 1 6.788750 1.357750 256.614750
2788 1 6.788750 4.073250 259.330250
2789 1 9.504250 1.357750 259.330250
2790 1 9.504250 4.073250 256.614750
2791 1 5.431000 8.146500 24.439500
2792 1 8.146500 5.431000 24.439500
2793 1 6.788750 6.788750 23.081750
2794 1 6.788750 9.504250 25.797250
2795 1 9.504250 6.788750 25.797250
2796 1 9.504250 9.504250 23.081750
2797 1 5.431000 5.431000 27.155000
2798 1 5.431000 8.146500 29.870500
2799 1 8.146500 5.431000 29.870500
2800 1 8.146500 8.146500 27.155000
2801 1 6.788750 6.788750 28.512750
2802 1 6.788750 9.504250 31.228250
2803 1 9.504250 6.788750 31.228250
2804 1 9.504250 9.504250 28.512750
2805 1 5.431000 5.431000 32.586000
2806 1 5.431000 8.146500 35.301500
2807 1 8.146500 5.431000 35.301500
2808 1 8.146500 8.146500 32.586000
2809 1 6.788750 6.788750 33.943750
2810 1 6.788750 9.504250 36.659250
2811 1 9.504250 6.788750 36.659250
2812 1 9.504250 9.504250 33.943750
2813 1 5.431000 5.431000 38.017000
2814 1 5.431000 8.146500 40.732500
2815 1 8.146500 5.431000 40.732500
2816 1 8.146500 8.146500 38.017000
2817 1 6.788750 6.788750 39.374750
2818 1 6.788750 9.504250 42.090250
2819 1 9.504250 6.788750 42.090250
2820 1 9.504250 9.504250 39.374750
2821 1 5.431000 8.146500 67.887500
2822 1 8.146500 5.431000 67.887500
2823 1 6.788750 6.788750 66.529750
2824 1 6.788750 9.504250 69.245250
2825 1 9.504250 6.788750 69.245250
2826 1 9.504250 9.504250 66.529750
2827 1 5.431000 5.431000 70.603000
2828 1 5.431000 8.146500 73.318500
2829 1 8.146500 5.431000 73.318500
2830 1 8.146500 8.146500 70.603000
2831 1 6.788750 6.788750 71.960750
2832 1 6.788750 9.504250 74.676250
2833 1 9.504250 6.788750 74.676250
2834 1 9.504250 9.504250 71.960750
2835 1 5.431000 5.431000 76.034000
2836 1 5.431000 8.146500 78.749500
2837 1 8.146500 5.431000 78.749500
2838 1 8.146500 8.146500 76.034000
2839 1 6.788750 6.788750 77.391750
2840 1 6.788750 9.504250 80.107250
2841 1 9.504250 6.788750 80.107250
2842 1 9.504250 9.504250 77.391750
2843 1 5.431000 5.431000 81.465000
2844 1 5.431000 8.146500 84.180500
2845 1 8.146500 5.431000 84.180500
2846 1 8.146500 8.146500 81.465000
2847 1 6.788750 6.788750 82.822750
2848 1 6.788750 9.504250 85.538250
2849 1 9.504250 6.788750 85.538250
2850 1 9.504250 9.504250 82.822750
2851 1 5.431000 8.146500 111.335500
2852 1 8.146500 5.431000 111.335500
2853 1 6.788750 6.788750 109.977750
2854 1 6.788750 9.504250 112.693250
2855 1 9.504250 6.788750 112.693250
2856 1 9.504250 9.504250 109.977750
2857 1 5.431000 5.431000 114.051000
2858 1 5.431000 8.146500 116.766500
2859 1 8.146500 5.431000 116.766500
2860 1 8.146500 8.146500 114.051000
2861 1 6.788750 6.788750 115.408750
2862 1 6.788750 9.504250 118.124250
2863 1 9.504250 6.788750 118.124250
2864 1 9.504250 9.504250 115.408750
2865 1 5.431000 5.431000 119.482000
2866 1 5.431000 8.146500 122.197500
2867 1 8.146500 5.431000 122.197500
2868 1 8.146500 8.146500 119.482000
2869 1 6.788750 6.788750 120.839750
2870 1 6.788750 9.504250 123.555250
2871 1 9.504250 6.788750 123.555250
2872 1 9.504250 9.504250 120.839750
2873 1 5.431000 5.431000 124.913000
2874 1 5.431000 8.146500 127.628500
2875 1 8.146500 5.431000 127.628500
2876 1 8.146500 8.146500 124.913000
2877 1 6.788750 6.788750 126.270750
2878 1 6.788750 9.504250 128.986250
2879 1 9.504250 6.788750 128.986250
2880 1 9.504250 9.504250 126.270750
2881 1 5.431000 8.146500 154.783500
2882 1 8.146500 5.431000 154.783500
2883 1 6.788750 6.788750 153.425750
2884 1 6.788750 9.504250 156.141250
2885 1 9.504250 6.788750 156.141250
2886 1 9.504250 9.504250 153.425750
2887 1 5.431000 5.431000 157.499000
2888 1 5.431000 8.146500 160.214500
2889 1 8.146500 5.431000 160.214500
2890 1 8.146500 8.146500 157.499000
2891 1 6.788750 6.788750 158.856750
2892 1 6.788750 9.504250 161.572250
2893 1 9.504250 6.788750 161.572250
2894 1 9.504250 9.504250 158.856750
2895 1 5.431000 5.431000 162.930000
2896 1 5.431000 8.146500 165.645500
2897 1 8.146500 5.431000 165.645500
2898 1 8.146500 8.146500 162.930000
2899 1 6.788750 6.788750 164.287750
2900 1 6.788750 9.504250 167.003250
2901 1 9.504250 6.788750 167.003250
2902 1 9.504250 9.504250 164.287750
2903 1 5.431000 5.431000 168.361000
2904 1 5.431000 8.146500 171.076500
2905 1 8.146500 5.431000 171.076500
2906 1 8.146500 8.146500 168.361000
2907 1 6.788750 6.788750 169.718750
2908 1 6.788750 9.504250 172.434250
2909 1 9.504250 6.788750 172.434250
2910 1 9.504250 9.504250 169.718750
2911 1 5.431000 8.146500 198.231500
2912 1 8.146500 5.431000 198.231500
2913 1 6.788750 6.788750 196.873750
2914 1 6.788750 9.504250 199.589250
2915 1 9.504250 6.788750 199.589250
2916 1 9.504250 9.504250 196.873750
2917 1 5.431000 5.431000 200.947000
2918 1 5.431000 8.146500 203.662500
2919 1 8.146500 5.431000 203.662500
2920 1 8.146500 8.146500 200.947000
2921 1 6.788750 6.788750 202.304750
2922 1 6.788750 9.504250 205.020250
2923 1 9.504250 6.788750 205.020250
2924 1 9.504250 9.504250 202.304750
2925 1 5.431000 5.431000 206.378000
2926 1 5.431000 8.146500 209.093500
2927 1 8.146500 5.431000 209.093500
2928 1 8.146500 8.146500 206.378000
2929 1 6.788750 6.788750 207.735750
2930 1 6.788750 9.504250 210.451250
2931 1 9.504250 6.788750 210.451250
2932 1 9.504250 9.504250 207.735750
2933 1 5.431000 5.431000 211.809000
2934 1 5.431000 8.146500 214.524500
2935 1 8.146500 5.431000 214.524500
2936 1 8.146500 8.146500 211.809000
2937 1 6.788750 6.788750 213.166750
2938 1 6.788750 9.504250 215.882250
2939 1 9.504250 6.788750 215.882250
2940 1 9.504250 9.504250 213.166750
2941 1 5.431000 8.146500 241.679500
2942 1 8.146500 5.431000 241.679500
2943 1 6.788750 6.788750 240.321750
2944 1 6.788750 9.504250 243.037250
2945 1 9.504250 6.788750 243.037250
2946 1 9.504250 9.504250 240.321750
2947 1 5.431000 5.431000 244.395000
2948 1 5.431000 8.146500 247.110500
2949 1 8.146500 5.431000 247.110500
2950 1 8.146500 8.146500 244.395000
2951 1 6.788750 6.788750 245.752750
2952 1 6.788750 9.504250 248.468250
2953 1 9.504250 6.788750 248.468250
2954 1 9.504250 9.504250 245.752750
2955 1 5.431000 5.431000 249.826000
2956 1 5.431000 8.146500 252.541500
2957 1 8.146500 5.431000 252.541500
2958 1 8.146500 8.146500 249.826000
2959 1 6.788750 6.788750 251.183750
2960 1 6.788750 9.504250 253.899250
2961 1 9.504250 6.788750 253.899250
2962 1 9.504250 9.504250 251.183750
2963 1 5.431000 5.431000 255.257000
2964 1 5.431000 8.146500 257.972500
2965 1 8.146500 5.431000 257.972500
2966 1 8.146500 8.146500 255.257000
2967 1 6.788750 6.788750 256.614750
2968 1 6.788750 9.504250 259.330250
2969 1 9.504250 6.788750 259.330250
2970 1 9.504250 9.504250 256.614750
2971 1 5.431000 13.577500 2.715500
2972 1 8.146500 13.577500 0.000000
2973 1 6.788750 12.219750 1.357750
2974 1 6.788750 14.935250 4.073250
2975 1 9.504250 12.219750 4.073250
2976 1 9.504250 14.935250 1.357750
2977 1 5.431000 13.577500 8.146500
2978 1 8.146500 13.577500 5.431000
2979 1 6.788750 12.219750 6.788750
2980 1 6.788750 14.935250 9.504250
2981 1 9.504250 12.219750 9.504250
2982 1 9.504250 14.935250 6.788750
2983 1 5.431000 13.577500 13.577500
2984 1 8.146500 13.577500 10.862000
2985 1 6.788750 12.219750 12.219750
2986 1 6.788750 14.935250 14.935250
2987 1 9.504250 12.219750 14.935250
2988 1 9.504250 14.935250 12.219750
2989 1 5.431000 13.577500 19.008500
2990 1 8.146500 13.577500 16.293000
2991 1 6.788750 12.219750 17.650750
2992 1 6.788750 14.935250 20.366250
2993 1 9.504250 12.219750 20.366250
2994 1 9.504250 14.935250 17.650750
2995 1 5.431000 13.577500 24.439500
2996 1 8.146500 10.862000 24.439500
2997 1 8.146500 13.577500 21.724000
2998 1 6.788750 12.219750 23.081750
2999 1 6.788750 14.935250 25.797250
3000 1 9.504250 12.219750 25.797250
3001 1 9.504250 14.935250 23.081750
3002 1 5.431000 10.862000 27.155000
3003 1 5.431000 13.577500 29.870500
3004 1 8.146500 10.862000 29.870500
3005 1 8.146500 13.577500 27.155000
3006 1 6.788750 12.219750 28.512750
3007 1 6.788750 14.935250 31.228250
3008 1 9.504250 12.219750 31.228250
3009 1 9.504250 14.935250 28.512750
3010 1 5.431000 10.862000 32.586000
3011 1 5.431000 13.577500 35.301500
3012 1 8.146500 10.862000 35.301500
3013 1 8.146500 13.577500 32.586000
3014 1 6.788750 12.219750 33.943750
3015 1 6.788750 14.935250 36.659250
3016 1 9.504250 12.219750 36.659250
3017 1 9.504250 14.935250 33.943750
3018 1 5.431000 10.862000 38.017000
3019 1 5.431000 13.577500 40.732500
3020 1 8.146500 10.862000 40.732500
3021 1 8.146500 13.577500 38.017000
3022 1 6.788750 12.219750 39.374750
3023 1 6.788750 14.935250 42.090250
3024 1 9.504250 12.219750 42.090250
3025 1 9.504250 14.935250 39.374750
3026 1 5.431000 13.577500 46.163500
3027 1 8.146500 13.577500 43.448000
3028 1 6.788750 12.219750 44.805750
3029 1 6.788750 14.935250 47.521250
3030 1 9.504250 12.219750 47.521250
3031 1 9.504250 14.935250 44.805750
3032 1 5.431000 13.577500 51.594500
3033 1 8.146500 13.577500 48.879000
3034 1 6.788750 12.219750 50.236750
3035 1 6.788750 14.935250 52.952250
3036 1 9.504250 12.219750 52.952250
3037 1 9.504250 14.935250 50.236750
3038 1 5.431000 13.577500 57.025500
3039 1 8.146500 13.577500 54.310000
3040 1 6.788750 12.219750 55.667750
3041 1 6.788750 14.935250 58.383250
3042 1 9.504250 12.219750 58.383250
3043 1 9.504250 14.935250 55.667750
3044 1 5.431000 13.577500 62.456500
3045 1 8.146500 13.577500 59.741000
3046 1 6.788750 12.219750 61.098750
3047 1 6.788750 14.935250 63.814250
3048 1 9.504250 12.219750 63.814250
3049 1 9.504250 14.935250 61.098750
3050 1 5.431000 13.577500 67.887500
3051 1 8.146500 10.862000 67.887500
3052 1 8.146500 13.577500 65.172000
3053 1 6.788750 12.219750 66.529750
3054 1 6.788750 14.935250 69.245250
3055 1 9.504250 12.219750 69.245250
3056 1 9.504250 14.935250 66.529750
3057 1 5.431000 10.862000 70.603000
3058 1 5.431000 13.577500 73.318500
3059 1 8.146500 10.862000 73.318500
3060 1 8.146500 13.577500 70.603000
3061 1 6.788750 12.219750 71.960750
3062 1 6.788750 14.935250 74.676250
3063 1 9.504250 12.219750 74.676250
3064 1 9.504250 14.935250 71.960750
3065 1 5.431000 10.862000 76.034000
3066 1 5.431000 13.577500 78.749500
3067 1 8.146500 10.862000 78.749500
3068 1 8.146500 13.577500 76.034000
3069 1 6.788750 12.219750 77.391750
3070 1 6.788750 14.935250 80.107250
3071 1 9.504250 12.219750 80.107250
3072 1 9.504250 14.935250 77.391750
3073 1 5.431000 10.862000 81.465000
3074 1 5.431000 13.577500 84.180500
3075 1 8.146500 10.862000 84.180500
3076 1 8.146500 13.577500 81.465000
3077 1 6.788750 12.219750 82.822750
3078 1 6.788750 14.935250 85.538250
3079 1 9.504250 12.219750 85.538250
3080 1 9.504250 14.935250 82.822750
3081 1 5.431000 13.577500 89.611500
3082 1 8.146500 13.577500 86.896000
3083 1 6.788750 12.219750 88.253750
3084 1 6.788750 14.935250 90.969250
3085 1 9.504250 12.219750 90.969250
3086 1 9.504250 14.935250 88.253750
3087 1 5.431000 13.577500 95.042500
3088 1 8.146500 13.577500 92.327000
3089 1 6.788750 12.219750 93.684750
3090 1 6.788750 14.935250 96.400250
3091 1 9.504250 12.219750 96.400250
3092 1 9.504250 14.935250 93.684750
3093 1 5.431000 13.577500 100.473500
3094 1 8.146500 13.577500 97.758000
3095 1 6.788750 12.219750 99.115750
3096 1 6.788750 14.935250 101.831250
3097 1 9.504250 12.219750 101.831250
3098 1 9.504250 14.935250 99.115750
3099 1 5.431000 13.577500 105.904500
3100 1 8.146500 13.577500 103.189000
3101 1 6.788750 12.219750 104.546750
3102 1 6.788750 14.935250 107.262250
3103 1 9.504250 12.219750 107.262250
3104 1 9.504250 14.935250 104.546750
3105 1 5.431000 13.577500 111.335500
3106 1 8.146500 10.862000 111.335500
3107 1 8.146500 13.577500 108.620000
3108 1 6.788750 12.219750 109.977750
3109 1 6.788750 14.935250 112.693250
3110 1 9.504250 12.219750 112.693250
3111 1 9.504250 14.935250 109.977750
3112 1 5.431000 10.862000 114.051000
3113 1 5.431000 13.577500 116.766500
3114 1 8.146500 10.862000 116.766500
3115 1 8.146500 13.577500 114.051000
3116 1 6.788750 12.219750 115.408750
3117 1 6.788750 14.935250 118.124250
3118 1 9.504250 12.219750 118.124250
3119 1 9.504250 14.935250 115.408750
3120 1 5.431000 10.862000 119.482000
3121 1 5.431000 13.577500 122.197500
3122 1 8.146500 10.862000 122.197500
3123 1 8.146500 13.577500 119.482000
3124 1 6.788750 12.219750 120.839750
3125 1 6.788750 14.935250 123.555250
3126 1 9.504250 12.219750 123.555250
3127 1 9.504250 14.935250 120.839750
3128 1 5.431000 10.862000 124.913000
3129 1 5.431000 13.577500 127.628500
3130 1 8.146500 10.862000 127.628500
3131 1 8.146500 13.577500 124.913000
3132 1 6.788750 12.219750 126.270750
3133 1 6.788750 14.935250 128.986250
3134 1 9.504250 12.219750 128.986250
3135 1 9.504250 14.935250 126.270750
3136 1 5.431000 13.577500 133.059500
3137 1 8.146500 13.577500 130.344000
3138 1 6.788750 12.219750 131.701750
3139 1 6.788750 14.935250 134.417250
3140 1 9.504250 12.219750 134.417250
3141 1 9.504250 14.935250 131.701750
3142 1 5.431000 13.577500 138.490500
3143 1 8.146500 13.577500 135.775000
3144 1 6.788750 12.219750 137.132750
3145 1 6.788750 14.935250 139.848250
3146 1 9.504250 12.219750 139.848250
3147 1 9.504250 14.935250 137.132750
3148 1 5.431000 13.577500 143.921500
3149 1 8.146500 13.577500 141.206000
3150 1 6.788750 12.219750 142.563750
3151 1 6.788750 14.935250 145.279250
3152 1 9.504250 12.219750 145.279250
3153 1 9.504250 14.935250 142.563750
3154 1 5.431000 13.577500 149.352500
3155 1 8.146500 13.577500 146.637000
3156 1 6.788750 12.219750 147.994750
3157 1 6.788750 14.935250 150.710250
3158 1 9.504250 12.219750 150.710250
3159 1 9.504250 14.935250 147.994750
3160 1 5.431000 13.577500 154.783500
3161 1 8.146500 10.862000 154.783500
3162 1 8.146500 13.577500 152.068000
3163 1 6.788750 12.219750 153.425750
3164 1 6.788750 14.935250 156.141250
3165 1 9.504250 12.219750 156.141250
3166 1 9.504250 14.935250 153.425750
3167 1 5.431000 10.862000 157.499000
3168 1 5.431000 13.577500 160.214500
3169 1 8.146500 10.862000 160.214500
3170 1 8.146500 13.577500 157.499000
3171 1 6.788750 12.219750 158.856750
3172 1 6.788750 14.935250 161.572250
3173 1 9.504250 12.219750 161.572250
3174 1 9.504250 14.935250 158.856750
3175 1 5.431000 10.862000 162.930000
3176 1 5.431000 13.577500 165.645500
3177 1 8.146500 10.862000 165.645500
3178 1 8.146500 13.577500 162.930000
3179 1 6.788750 12.219750 164.287750
3180 1 6.788750 14.935250 167.003250
3181 1 9.504250 12.219750 167.003250
3182 1 9.504250 14.935250 164.287750
3183 1 5.431000 10.862000 168.361000
3184 1 5.431000 13.577500 171.076500
3185 1 8.146500 10.862000 171.076500
3186 1 8.146500 13.577500 168.361000
3187 1 6.788750 12.219750 169.718750
3188 1 6.788750 14.935250 172.434250
3189 1 9.504250 12.219750 172.434250
3190 1 9.504250 14.935250 169.718750
3191 1 5.431000 13.577500 176.507500
3192 1 8.146500 13.577500 173.792000
3193 1 6.788750 12.219750 175.149750
3194 1 6.788750 14.935250 177.865250
3195 1 9.504250 12.219750 177.865250
3196 1 9.504250 14.935250 175.149750
3197 1 5.431000 13.577500 181.938500
3198 1 8.146500 13.577500 179.223000
3199 1 6.788750 12.219750 180.580750
3200 1 6.788750 14.935250 183.296250
3201 1 9.504250 12.219750 183.296250
3202 1 9.504250 14.935250 180.580750
3203 1 5.431000 13.577500 187.369500
3204 1 8.146500 13.577500 184.654000
3205 1 6.788750 12.219750 186.011750
3206 1 6.788750 14.935250 188.727250
3207 1 9.504250 12.219750 188.727250
3208 1 9.504250 14.935250 186.011750
3209 1 5.431000 13.577500 192.800500
3210 1 8.146500 13.577500 190.085000
3211 1 6.788750 12.219750 191.442750
3212 1 6.788750 14.935250 194.158250
3213 1 9.504250 12.219750 194.158250
3214 1 9.504250 14.935250 191.442750
3215 1 5.431000 13.577500 198.231500
3216 1 8.146500 10.862000 198.231500
3217 1 8.146500 13.577500 195.516000
3218 1 6.788750 12.219750 196.873750
3219 1 6.788750 14.935250 199.589250
3220 1 9.504250 12.219750 199.589250
3221 1 9.504250 14.935250 196.873750
3222 1 5.431000 10.862000 200.947000
3223 1 5.431000 13.577500 203.662500
3224 1 8.146500 10.862000 203.662500
3225 1 8.146500 13.577500 200.947000
3226 1 6.788750 12.219750 202.304750
3227 1 6.788750 14.935250 205.020250
3228 1 9.504250 12.219750 205.020250
3229 1 9.504250 14.935250 202.304750
3230 1 5.431000 10.862000 206.378000
3231 1 5.431000 13.577500 209.093500
3232 1 8.146500 10.862000 209.093500
3233 1 8.146500 13.577500 206.378000
3234 1 6.788750 12.219750 207.735750
3235 1 6.788750 14.935250 210.451250
3236 1 9.504250 12.219750 210.451250
3237 1 9.504250 14.935250 207.735750
3238 1 5.431000 10.862000 211.809000
3239 1 5.431000 13.577500 214.524500
3240 1 8.146500 10.862000 214.524500
3241 1 8.146500 13.577500 211.809000
3242 1 6.788750 12.219750 213.166750
3243 1 6.788750 14.935250 215.882250
3244 1 9.504250 12.219750 215.882250
3245 1 9.504250 14.935250 213.166750
3246 1 5.431000 13.577500 219.955500
3247 1 8.146500 13.577500 217.240000
3248 1 6.788750 12.219750 218.597750
3249 1 6.788750 14.935250 221.313250
3250 1 9.504250 12.219750 221.313250
3251 1 9.504250 14.935250 218.597750
3252 1 5.431000 13.577500 225.386500
3253 1 8.146500 13.577500 222.671000
3254 1 6.788750 12.219750 224.028750
3255 1 6.788750 14.935250 226.744250
3256 1 9.504250 12.219750 226.744250
3257 1 9.504250 14.935250 224.028750
3258 1 5.431000 13.577500 230.817500
3259 1 8.146500 13.577500 228.102000
3260 1 6.788750 12.219750 229.459750
3261 1 6.788750 14.935250 232.175250
3262 1 9.504250 12.219750 232.175250
3263 1 9.504250 14.935250 229.459750
3264 1 5.431000 13.577500 236.248500
3265 1 8.146500 13.577500 233.533000
3266 1 6.788750 12.219750 234.890750
3267 1 6.788750 14.935250 237.606250
3268 1 9.504250 12.219750 237.606250
3269 1 9.504250 14.935250 234.890750
3270 1 5.431000 13.577500 241.679500
3271 1 8.146500 10.862000 241.679500
3272 1 8.146500 13.577500 238.964000
3273 1 6.788750 12.219750 240.321750
3274 1 6.788750 14.935250 243.037250
3275 1 9.504250 12.219750 243.037250
3276 1 9.504250 14.935250 240.321750
3277 1 5.431000 10.862000 244.395000
3278 1 5.431000 13.577500 247.110500
3279 1 8.146500 10.862000 247.110500
3280 1 8.146500 13.577500 244.395000
3281 1 6.788750 12.219750 245.752750
3282 1 6.788750 14.935250 248.468250
3283 1 9.504250 12.219750 248.468250
3284 1 9.504250 14.935250 245.752750
3285 1 5.431000 10.862000 249.826000
3286 1 5.431000 13.577500 252.541500
3287 1 8.146500 10.862000 252.541500
3288 1 8.146500 13.577500 249.826000
3289 1 6.788750 12.219750 251.183750
3290 1 6.788750 14.935250 253.899250
3291 1 9.504250 12.219750 253.899250
3292 1 9.504250 14.935250 251.183750
3293 1 5.431000 10.862000 255.257000
3294 1 5.431000 13.577500 257.972500
3295 1 8.146500 10.862000 257.972500
3296 1 8.146500 13.577500 255.257000
3297 1 6.788750 12.219750 256.614750
3298 1 6.788750 14.935250 259.330250
3299 1 9.504250 12.219750 259.330250
3300 1 9.504250 14.935250 256.614750
3301 1 5.431000 16.293000 0.000000
3302 1 5.431000 19.008500 2.715500
3303 1 8.146500 16.293000 2.715500
3304 1 8.146500 19.008500 0.000000
3305 1 6.788750 17.650750 1.357750
3306 1 6.788750 20.366250 4.073250
3307 1 9.504250 17.650750 4.073250
3308 1 9.504250 20.366250 1.357750
3309 1 5.431000 16.293000 5.431000
3310 1 5.431000 19.008500 8.146500
3311 1 8.146500 16.293000 8.146500
3312 1 8.146500 19.008500 5.431000
3313 1 6.788750 17.650750 6.788750
3314 1 6.788750 20.366250 9.504250
3315 1 9.504250 17.650750 9.504250
3316 1 9.504250 20.366250 6.788750
3317 1 5.431000 16.293000 10.862000
3318 1 5.431000 19.008500 13.577500
3319 1 8.146500 16.293000 13.577500
3320 1 8.146500 19.008500 10.862000
3321 1 6.788750 17.650750 12.219750
3322 1 6.788750 20.366250 14.935250
3323 1 9.504250 17.650750 14.935250
3324 1 9.504250 20.366250 12.219750
3325 1 5.431000 16.293000 16.293000
3326 1 5.431000 19.008500 19.008500
3327 1 8.146500 16.293000 19.008500
3328 1 8.146500 19.008500 16.293000
3329 1 6.788750 17.650750 17.650750
3330 1 6.788750 20.366250 20.366250
3331 1 9.504250 17.650750 20.366250
3332 1 9.504250 20.366250 17.650750
3333 1 5.431000 16.293000 21.724000
3334 1 5.431000 19.008500 24.439500
3335 1 8.146500 16.293000 24.439500
3336 1 8.146500 19.008500 21.724000
3337 1 6.788750 17.650750 23.081750
3338 1 6.788750 20.366250 25.797250
3339 1 9.504250 17.650750 25.797250
3340 1 9.504250 20.366250 23.081750
3341 1 5.431000 16.293000 27.155000
3342 1 5.431000 19.008500 29.870500
3343 1 8.146500 16.293000 29.870500
3344 1 8.146500 19.008500 27.155000
3345 1 6.788750 17.650750 28.512750
3346 1 6.788750 20.366250 31.228250
3347 1 9.504250 17.650750 31.228250
3348 1 9.504250 20.366250 28.512750
3349 1 5.431000 16.293000 32.586000
3350 1 5.431000 19.008500 35.301500
3351 1 8.146500 16.293000 35.301500
3352 1 8.146500 19.008500 32.586000
3353 1 6.788750 17.650750 33.943750
3354 1 6.788750 20.366250 36.659250
3355 1 9.504250 17.650750 36.659250
3356 1 9.504250 20.366250 33.943750
3357 1 5.431000 16.293000 38.017000
3358 1 5.431000 19.008500 40.732500
3359 1 8.146500 16.293000 40.732500
3360 1 8.146500 19.008500 38.017000
3361 1 6.788750 17.650750 39.374750
3362 1 6.788750 20.366250 42.090250
3363 1 9.504250 17.650750 42.090250
3364 1 9.504250 20.366250 39.374750
3365 1 5.431000 16.293000 43.448000
3366 1 5.431000 19.008500 46.163500
3367 1 8.146500 16.293000 46.163500
3368 1 8.146500 19.008500 43.448000
3369 1 6.788750 17.650750 44.805750
3370 1 6.788750 20.366250 47.521250
3371 1 9.504250 17.650750 47.521250
3372 1 9.504250 20.366250 44.805750
3373 1 5.431000 16.293000 48.879000
3374 1 5.431000 19.008500 51.594500
3375 1 8.146500 16.293000 51.594500
3376 1 8.146500 19.008500 48.879000
3377 1 6.788750 17.650750 50.236750
3378 1 6.788750 20.366250 52.952250
3379 1 9.504250 17.650750 52.952250
3380 1 9.504250 20.366250 50.236750
3381 1 5.431000 16.293000 54.310000
3382 1 5.431000 19.008500 57.025500
3383 1 8.146500 16.293000 57.025500
3384 1 8.146500 19.008500 54.310000
3385 1 6.788750 17.650750 55.667750
3386 1 6.788750 20.366250 58.383250
3387 1 9.504250 17.650750 58.383250
3388 1 9.504250 20.366250 55.667750
3389 1 5.431000 16.293000 59.741000
3390 1 5.431000 19.008500 62.456500
3391 1 8.146500 16.293000 62.456500
3392 1 8.146500 19.008500 59.741000
3393 1 6.788750 17.650750 61.098750
3394 1 6.788750 20.366250 63.814250
3395 1 9.504250 17.650750 63.814250
3396 1 9.504250 20.366250 61.098750
3397 1 5.431000 16.293000 65.172000
3398 1 5.431000 19.008500 67.887500
3399 1 8.146500 16.293000 67.887500
3400 1 8.146500 19.008500 65.172000
3401 1 6.788750 17.650750 66.529750
3402 1 6.788750 20.366250 69.245250
3403 1 9.504250 17.650750 69.245250
3404 1 9.504250 20.366250 66.529750
3405 1 5.431000 16.293000 70.603000
3406 1 5.431000 19.008500 73.318500
3407 1 8.146500 16.293000 73.318500
3408 1 8.146500 19.008500 70.603000
3409 1 6.788750 17.650750 71.960750
3410 1 6.788750 20.366250 74.676250
3411 1 9.504250 17.650750 74.676250
3412 1 9.504250 20.366250 71.960750
3413 1 5.431000 16.293000 76.034000
3414 1 5.431000 19.008500 78.749500
3415 1 8.146500 16.293000 78.749500
3416 1 8.146500 19.008500 76.034000
3417 1 6.788750 17.650750 77.391750
3418 1 6.788750 20.366250 80.107250
3419 1 9.504250 17.650750 80.107250
3420 1 9.504250 20.366250 77.391750
3421 1 5.431000 16.293000 81.465000
3422 1 5.431000 19.008500 84.180500
3423 1 8.146500 16.293000 84.180500
3424 1 8.146500 19.008500 81.465000
3425 1 6.788750 17.650750 82.822750
3426 1 6.788750 20.366250 85.538250
3427 1 9.504250 17.650750 85.538250
3428 1 9.504250 20.366250 82.822750
3429 1 5.431000 16.293000 86.896000
3430 1 5.431000 19.008500 89.611500
3431 1 8.146500 16.293000 89.611500
3432 1 8.146500 19.008500 86.896000
3433 1 6.788750 17.650750 88.253750
3434 1 6.788750 20.366250 90.969250
3435 1 9.504250 17.650750 90.969250
3436 1 9.504250 20.366250 88.253750
3437 1 5.431000 16.293000 92.327000
3438 1 5.431000 19.008500 95.042500
3439 1 8.146500 16.293000 95.042500
3440 1 8.146500 19.008500 92.327000
3441 1 6.788750 17.650750 93.684750
3442 1 6.788750 20.366250 96.400250
3443 1 9.504250 17.650750 96.400250
3444 1 9.504250 20.366250 93.684750
3445 1 5.431000 16.293000 97.758000
3446 1 5.431000 19.008500 100.473500
3447 1 8.146500 16.293000 100.473500
3448 1 8.146500 19.008500 97.758000
3449 1 6.788750 17.650750 99.115750
3450 1 6.788750 20.366250 101.831250
3451 1 9.504250 17.650750 101.831250
3452 1 9.504250 20.366250 99.115750
3453 1 5.431000 16.293000 103.189000
3454 1 5.431000 19.008500 105.904500
3455 1 8.146500 16.293000 105.904500
3456 1 8.146500 19.008500 103.189000
3457 1 6.788750 17.650750 104.546750
3458 1 6.788750 20.366250 107.262250
3459 1 9.504250 17.650750 107.262250
3460 1 9.504250 20.366250 104.546750
3461 1 5.431000 16.293000 108.620000
3462 1 5.431000 19.008500 111.335500
3463 1 8.146500 16.293000 111.335500
3464 1 8.146500 19.008500 108.620000
3465 1 6.788750 17.650750 109.977750
3466 1 6.788750 20.366250 112.693250
3467 1 9.504250 17.650750 112.693250
3468 1 9.504250 20.366250 109.977750
3469 1 5.431000 16.293000 114.051000
3470 1 5.431000 19.008500 116.766500
3471 1 8.146500 16.293000 116.766500
3472 1 8.146500 19.008500 114.051000
3473 1 6.788750 17.650750 115.408750
3474 1 6.788750 20.366250 118.124250
3475 1 9.504250 17.650750 118.124250
3476 1 9.504250 20.366250 115.408750
3477 1 5.431000 16.293000 119.482000
3478 1 5.431000 19.008500 122.197500
3479 1 8.146500 16.293000 122.197500
3480 1 8.146500 19.008500 119.482000
3481 1 6.788750 17.650750 120.839750
3482 1 6.788750 20.366250 123.555250
3483 1 9.504250 17.650750 123.555250
3484 1 9.504250 20.366250 120.839750
3485 1 5.431000 16.293000 124.913000
3486 1 5.431000 19.008500 127.628500
3487 1 8.146500 16.293000 127.628500
3488 1 8.146500 19.008500 124.913000
3489 1 6.788750 17.650750 126.270750
3490 1 6.788750 20.366250 128.986250
3491 1 9.504250 17.650750 128.986250
3492 1 9.504250 20.366250 126.270750
3493 1 5.431000 16.293000 130.344000
3494 1 5.431000 19.008500 133.059500
3495 1 8.146500 16.293000 133.059500
3496 1 8.146500 19.008500 130.344000
3497 1 6.788750 17.650750 131.701750
3498 1 6.788750 20.366250 134.417250
3499 1 9.504250 17.650750 134.417250
3500 1 9.504250 20.366250 131.701750
3501 1 5.431000 16.293000 135.775000
3502 1 5.431000 19.008500 138.490500
3503 1 8.146500 16.293000 138.490500
3504 1 8.146500 19.008500 135.775000
3505 1 6.788750 17.650750 137.132750
3506 1 6.788750 20.366250 139.848250
3507 1 9.504250 17.650750 139.848250
3508 1 9.504250 20.366250 137.132750
3509 1 5.431000 16.293000 141.206000
3510 1 5.431000 19.008500 143.921500
3511 1 8.146500 16.293000 143.921500
3512 1 8.146500 19.008500 141.206000
3513 1 6.788750 17.650750 142.563750
3514 1 6.788750 20.366250 145.279250
3515 1 9.504250 17.650750 145.279250
3516 1 9.504250 20.366250 142.563750
3517 1 5.431000 16.293000 146.637000
3518 1 5.431000 19.008500 149.352500
3519 1 8.146500 16.293000 149.352500
3520 1 8.146500 19.008500 146.637000
3521 1 6.788750 17.650750 147.994750
3522 1 6.788750 20.366250 150.710250
3523 1 9.504250 17.650750 150.710250
3524 1 9.504250 20.366250 147.994750
3525 1 5.431000 16.293000 152.068000
3526 1 5.431000 19.008500 154.783500
3527 1 8.146500 16.293000 154.783500
3528 1 8.146500 19.008500 152.068000
3529 1 6.788750 17.650750 153.425750
3530 1 6.788750 20.366250 156.141250
3531 1 9.504250 17.650750 156.141250
3532 1 9.504250 20.366250 153.425750
3533 1 5.431000 16.293000 157.499000
3534 1 5.431000 19.008500 160.214500
3535 1 8.146500 16.293000 160.214500
3536 1 8.146500 19.008500 157.499000
3537 1 6.788750 17.650750 158.856750
3538 1 6.788750 20.366250 161.572250
3539 1 9.504250 17.650750 161.572250
3540 1 9.504250 20.366250 158.856750
3541 1 5.431000 16.293000 162.930000
3542 1 5.431000 19.008500 165.645500
3543 1 8.146500 16.293000 165.645500
3544 1 8.146500 19.008500 162.930000
3545 1 6.788750 17.650750 164.287750
3546 1 6.788750 20.366250 167.003250
3547 1 9.504250 17.650750 167.003250
3548 1 9.504250 20.366250 164.287750
3549 1 5.431000 16.293000 168.361000
3550 1 5.431000 19.008500 171.076500
3551 1 8.146500 16.293000 171.076500
3552 1 8.146500 19.008500 168.361000
3553 1 6.788750 17.650750 169.718750
3554 1 6.788750 20.366250 172.434250
3555 1 9.504250 17.650750 172.434250
3556 1 9.504250 20.366250 169.718750
3557 1 5.431000 16.293000 173.792000
3558 1 5.431000 19.008500 176.507500
3559 1 8.146500 16.293000 176.507500
3560 1 8.146500 19.008500 173.792000
3561 1 6.788750 17.650750 175.149750
3562 1 6.788750 20.366250 177.865250
3563 1 9.504250 17.650750 177.865250
3564 1 9.504250 20.366250 175.149750
3565 1 5.431000 16.293000 179.223000
3566 1 5.431000 19.008500 181.938500
3567 1 8.146500 16.293000 181.938500
3568 1 8.146500 19.008500 179.223000
3569 1 6.788750 17.650750 180.580750
3570 1 6.788750 20.366250 183.296250
3571 1 9.504250 17.650750 183.296250
3572 1 9.504250 20.366250 180.580750
3573 1 5.431000 16.293000 184.654000
3574 1 5.431000 19.008500 187.369500
3575 1 8.146500 16.293000 187.369500
3576 1 8.146500 19.008500 184.654000
3577 1 6.788750 17.650750 186.011750
3578 1 6.788750 20.366250 188.727250
3579 1 9.504250 17.650750 188.727250
3580 1 9.504250 20.366250 186.011750
3581 1 5.431000 16.293000 190.085000
3582 1 5.431000 19.008500 192.800500
3583 1 8.146500 16.293000 192.800500
3584 1 8.146500 19.008500 190.085000
3585 1 6.788750 17.650750 191.442750
3586 1 6.788750 20.366250 194.158250
3587 1 9.504250 17.650750 194.158250
3588 1 9.504250 20.366250 191.442750
3589 1 5.431000 16.293000 195.516000
3590 1 5.431000 19.008500 198.231500
3591 1 8.146500 16.293000 198.231500
3592 1 8.146500 19.008500 195.516000
3593 1 6.788750 17.650750 196.873750
3594 1 6.788750 20.366250 199.589250
3595 1 9.504250 17.650750 199.589250
3596 1 9.504250 20.366250 196.873750
3597 1 5.431000 16.293000 200.947000
3598 1 5.431000 19.008500 203.662500
3599 1 8.146500 16.293000 203.662500
3600 1 8.146500 19.008500 200.947000
3601 1 6.788750 17.650750 202.304750
3602 1 6.788750 20.366250 205.020250
3603 1 9.504250 17.650750 205.020250
3604 1 9.504250 20.366250 202.304750
3605 1 5.431000 16.293000 206.378000
3606 1 5.431000 19.008500 209.093500
3607 1 8.146500 16.293000 209.093500
3608 1 8.146500 19.008500 206.378000
3609 1 6.788750 17.650750 207.735750
3610 1 6.788750 20.366250 210.451250
3611 1 9.504250 17.650750 210.451250
3612 1 9.504250 20.366250 207.735750
3613 1 5.431000 16.293000 211.809000
3614 1 5.431000 19.008500 214.524500
3615 1 8.146500 16.293000 214.524500
3616 1 8.146500 19.008500 211.809000
3617 1 6.788750 17.650750 213.166750
3618 1 6.788750 20.366250 215.882250
3619 1 9.504250 17.650750 215.882250
3620 1 9.504250 20.366250 213.166750
3621 1 5.431000 16.293000 217.240000
3622 1 5.431000 19.008500 219.955500
3623 1 8.146500 16.293000 219.955500
3624 1 8.146500 19.008500 217.240000
3625 1 6.788750 17.650750 218.597750
3626 1 6.788750 20.366250 221.313250
3627 1 9.504250 17.650750 221.313250
3628 1 9.504250 20.366250 218.597750
3629 1 5.431000 16.293000 222.671000
3630 1 5.431000 19.008500 225.386500
3631 1 8.146500 16.293000 225.386500
3632 1 8.146500 19.008500 222.671000
3633 1 6.788750 17.650750 224.028750
3634 1 6.788750 20.366250 226.744250
3635 1 9.504250 17.650750 226.744250
3636 1 9.504250 20.366250 224.028750
3637 1 5.431000 16.293000 228.102000
3638 1 5.431000 19.008500 230.817500
3639 1 8.146500 16.293000 230.817500
3640 1 8.146500 19.008500 228.102000
3641 1 6.788750 17.650750 229.459750
3642 1 6.788750 20.366250 232.175250
3643 1 9.504250 17.650750 232.175250
3644 1 9.504250 20.366250 229.459750
3645 1 5.431000 16.293000 233.533000
3646 1 5.431000 19.008500 236.248500
3647 1 8.146500 16.293000 236.248500
3648 1 8.146500 19.008500 233.533000
3649 1 6.788750 17.650750 234.890750
3650 1 6.788750 20.366250 237.606250
3651 1 9.504250 17.650750 237.606250
3652 1 9.504250 20.366250 234.890750
3653 1 5.431000 16.293000 238.964000
3654 1 5.431000 19.008500 241.679500
3655 1 8.146500 16.293000 241.679500
3656 1 8.146500 19.008500 238.964000
3657 1 6.788750 17.650750 240.321750
3658 1 6.788750 20.366250 243.037250
3659 1 9.504250 17.650750 243.037250
3660 1 9.504250 20.366250 240.321750
3661 1 5.431000 16.293000 244.395000
3662 1 5.431000 19.008500 247.110500
3663 1 8.146500 16.293000 247.110500
3664 1 8.146500 19.008500 244.395000
3665 1 6.788750 17.650750 245.752750
3666 1 6.788750 20.366250 248.468250
3667 1 9.504250 17.650750 248.468250
3668 1 9.504250 20.366250 245.752750
3669 1 5.431000 16.293000 249.826000
3670 1 5.431000 19.008500 252.541500
3671 1 8.146500 16.293000 252.541500
3672 1 8.146500 19.008500 249.826000
3673 1 6.788750 17.650750 251.183750
3674 1 6.788750 20.366250 253.899250
3675 1 9.504250 17.650750 253.899250
3676 1 9.504250 20.366250 251.183750
3677 1 5.431000 16.293000 255.257000
3678 1 5.431000 19.008500 257.972500
3679 1 8.146500 16.293000 257.972500
3680 1 8.146500 19.008500 255.257000
3681 1 6.788750 17.650750 256.614750
3682 1 6.788750 20.366250 259.330250
3683 1 9.504250 17.650750 259.330250
3684 1 9.504250 20.366250 256.614750
3685 1 5.431000 21.724000 0.000000
3686 1 5.431000 24.439500 2.715500
3687 1 8.146500 21.724000 2.715500
3688 1 8.146500 24.439500 0.000000
3689 1 6.788750 23.081750 1.357750
3690 1 6.788750 25.797250 4.073250
3691 1 9.504250 23.081750 4.073250
3692 1 9.504250 25.797250 1.357750
3693 1 5.431000 21.724000 5.431000
3694 1 5.431000 24.439500 8.146500
3695 1 8.146500 21.724000 8.146500
3696 1 8.146500 24.439500 5.431000
3697 1 6.788750 23.081750 6.788750
3698 1 6.788750 25.797250 9.504250
3699 1 9.504250 23.081750 9.504250
3700 1 9.504250 25.797250 6.788750
3701 1 5.431000 21.724000 10.862000
3702 1 5.431000 24.439500 13.577500
3703 1 8.146500 21.724000 13.577500
3704 1 8.146500 24.439500 10.862000
3705 1 6.788750 23.081750 12.219750
3706 1 6.788750 25.797250 14.935250
3707 1 9.504250 23.081750 14.935250
3708 1 9.504250 25.797250 12.219750
3709 1 5.431000 21.724000 16.293000
3710 1 5.431000 24.439500 19.008500
3711 1 8.146500 21.724000 19.008500
3712 1 8.146500 24.439500 16.293000
3713 1 6.788750 23.081750 17.650750
3714 1 6.788750 25.797250 20.366250
3715 1 9.504250 23.081750 20.366250
3716 1 9.504250 25.797250 17.650750
3717 1 5.431000 21.724000 21.724000
3718 1 5.431000 24.439500 24.439500
3719 1 8.146500 21.724000 24.439500
3720 1 8.146500 24.439500 21.724000
3721 1 6.788750 23.081750 23.081750
3722 1 6.788750 25.797250 25.797250
3723 1 9.504250 23.081750 25.797250
3724 1 9.504250 25.797250 23.081750
3725 1 5.431000 21.724000 27.155000
3726 1 5.431000 24.439500 29.870500
3727 1 8.146500 21.724000 29.870500
3728 1 8.146500 24.439500 27.155000
3729 1 6.788750 23.081750 28.512750
3730 1 6.788750 25.797250 31.228250
3731 1 9.504250 23.081750 31.228250
3732 1 9.504250 25.797250 28.512750
3733 1 5.431000 21.724000 32.586000
3734 1 5.431000 24.439500 35.301500
3735 1 8.146500 21.724000 35.301500
3736 1 8.146500 24.439500 32.586000
3737 1 6.788750 23.081750 33.943750
3738 1 6.788750 25.797250 36.659250
3739 1 9.504250 23.081750 36.659250
3740 1 9.504250 25.797250 33.943750
3741 1 5.431000 21.724000 38.017000
3742 1 5.431000 24.439500 40.732500
3743 1 8.146500 21.724000 40.732500
3744 1 8.146500 24.439500 38.017000
3745 1 6.788750 23.081750 39.374750
3746 1 6.788750 25.797250 42.090250
3747 1 9.504250 23.081750 42.090250
3748 1 9.504250 25.797250 39.374750
3749 1 5.431000 21.724000 43.448000
3750 1 5.431000 24.439500 46.163500
3751 1 8.146500 21.724000 46.163500
3752 1 8.146500 24.439500 43.448000
3753 1 6.788750 23.081750 44.805750
3754 1 6.788750 25.797250 47.521250
3755 1 9.504250 23.081750 47.521250
3756 1 9.504250 25.797250 44.805750
3757 1 5.431000 21.724000 48.879000
3758 1 5.431000 24.439500 51.594500
3759 1 8.146500 21.724000 51.594500
3760 1 8.146500 24.439500 48.879000
3761 1 6.788750 23.081750 50.236750
3762 1 6.788750 25.797250 52.952250
3763 1 9.504250 23.081750 52.952250
3764 1 9.504250 25.797250 50.236750
3765 1 5.431000 21.724000 54.310000
3766 1 5.431000 24.439500 57.025500
3767 1 8.146500 21.724000 57.025500
3768 1 8.146500 24.439500 54.310000
3769 1 6.788750 23.081750 55.667750
3770 1 6.788750 25.797250 58.383250
3771 1 9.504250 23.081750 58.383250
3772 1 9.504250 25.797250 55.667750
3773 1 5.431000 21.724000 59.741000
3774 1 5.431000 24.439500 62.456500
3775 1 8.146500 21.724000 62.456500
3776 1 8.146500 24.439500 59.741000
3777 1 6.788750 23.081750 61.098750
3778 1 6.788750 25.797250 63.814250
3779 1 9.504250 23.081750 63.814250
3780 1 9.504250 25.797250 61.098750
3781 1 5.431000 21.724000 65.172000
3782 1 5.431000 24.439500 67.887500
3783 1 8.146500 21.724000 67.887500
3784 1 8.146500 24.439500 65.172000
3785 1 6.788750 23.081750 66.529750
3786 1 6.788750 25.797250 69.245250
3787 1 9.504250 23.081750 69.245250
3788 1 9.504250 25.797250 66.529750
3789 1 5.431000 21.724000 70.603000
3790 1 5.431000 24.439500 73.318500
3791 1 8.146500 21.724000 73.318500
3792 1 8.146500 24.439500 70.603000
3793 1 6.788750 23.081750 71.960750
3794 1 6.788750 25.797250 74.676250
3795 1 9.504250 23.081750 74.676250
3796 1 9.504250 25.797250 71.960750
3797 1 5.431000 21.724000 76.034000
3798 1 5.431000 24.439500 78.749500
3799 1 8.146500 21.724000 78.749500
3800 1 8.146500 24.439500 76.034000
3801 1 6.788750 23.081750 77.391750
3802 1 6.788750 25.797250 80.107250
3803 1 9.504250 23.081750 80.107250
3804 1 9.504250 25.797250 77.391750
3805 1 5.431000 21.724000 81.465000
3806 1 5.431000 24.439500 84.180500
3807 1 8.146500 21.724000 84.180500
3808 1 8.146500 24.439500 81.465000
3809 1 6.788750 23.081750 82.822750
3810 1 6.788750 25.797250 85.538250
3811 1 9.504250 23.081750 85.538250
3812 1 9.504250 25.797250 82.822750
3813 1 5.431000 21.724000 86.896000
3814 1 5.431000 24.439500 89.611500
3815 1 8.146500 21.724000 89.611500
3816 1 8.146500 24.439500 86.896000
3817 1 6.788750 23.081750 88.253750
3818 1 6.788750 25.797250 90.969250
3819 1 9.504250 23.081750 90.969250
3820 1 9.504250 25.797250 88.253750
3821 1 5.431000 21.724000 92.327000
3822 1 5.431000 24.439500 95.042500
3823 1 8.146500 21.724000 95.042500
3824 1 8.146500 24.439500 92.327000
3825 1 6.788750 23.081750 93.684750
3826 1 6.788750 25.797250 96.400250
3827 1 9.504250 23.081750 96.400250
3828 1 9.504250 25.797250 93.684750
3829 1 5.431000 21.724000 97.758000
3830 1 5.431000 24.439500 100.473500
3831 1 8.146500 21.724000 100.473500
3832 1 8.146500 24.439500 97.758000
3833 1 6.788750 23.081750 99.115750
3834 1 6.788750 25.797250 101.831250
3835 1 9.504250 23.081750 101.831250
3836 1 9.504250 25.797250 99.115750
3837 1 5.431000 21.724000 103.189000
3838 1 5.431000 24.439500 105.904500
3839 1 8.146500 21.724000 105.904500
3840 1 8.146500 24.439500 103.189000
3841 1 6.788750 23.081750 104.546750
3842 1 6.788750 25.797250 107.262250
3843 1 9.504250 23.081750 107.262250
3844 1 9.504250 25.797250 104.546750
3845 1 5.431000 21.724000 108.620000
3846 1 5.431000 24.439500 111.335500
3847 1 8.146500 21.724000 111.335500
3848 1 8.146500 24.439500 108.620000
3849 1 6.788750 23.081750 109.977750
3850 1 6.788750 25.797250 112.693250
3851 1 9.504250 23.081750 112.693250
3852 1 9.504250 25.797250 109.977750
3853 1 5.431000 21.724000 114.051000
3854 1 5.431000 24.439500 116.766500
3855 1 8.146500 21.724000 116.766500
3856 1 8.146500 24.439500 114.051000
3857 1 6.788750 23.081750 115.408750
3858 1 6.788750 25.797250 118.124250
3859 1 9.504250 23.081750 118.124250
3860 1 9.504250 25.797250 115.408750
3861 1 5.431000 21.724000 119.482000
3862 1 5.431000 24.439500 122.197500
3863 1 8.146500 21.724000 122.197500
3864 1 8.146500 24.439500 119.482000
3865 1 6.788750 23.081750 120.839750
3866 1 6.788750 25.797250 123.555250
3867 1 9.504250 23.081750 123.555250
3868 1 9.504250 25.797250 120.839750
3869 1 5.431000 21.724000 124.913000
3870 1 5.431000 24.439500 127.628500
3871 1 8.146500 21.724000 127.628500
3872 1 8.146500 24.439500 124.913000
3873 1 6.788750 23.081750 126.270750
3874 1 6.788750 25.797250 128.986250
3875 1 9.504250 23.081750 128.986250
3876 1 9.504250 25.797250 126.270750
3877 1 5.431000 21.724000 130.344000
3878 1 5.431000 24.439500 133.059500
3879 1 8.146500 21.724000 133.059500
3880 1 8.146500 24.439500 130.344000
3881 1 6.788750 23.081750 131.701750
3882 1 6.788750 25.797250 134.417250
3883 1 9.504250 23.081750 134.417250
3884 1 9.504250 25.797250 131.701750
3885 1 5.431000 21.724000 135.775000
3886 1 5.431000 24.439500 138.490500
3887 1 8.146500 21.724000 138.490500
3888 1 8.146500 24.439500 135.775000
3889 1 6.788750 23.081750 137.132750
3890 1 6.788750 25.797250 139.848250
3891 1 9.504250 23.081750 139.848250
3892 1 9.504250 25.797250 137.132750
3893 1 5.431000 21.724000 141.206000
3894 1 5.431000 24.439500 143.921500
3895 1 8.146500 21.724000 143.921500
3896 1 8.146500 24.439500 141.206000
3897 1 6.788750 23.081750 142.563750
3898 1 6.788750 25.797250 145.279250
3899 1 9.504250 23.081750 145.279250
3900 1 9.504250 25.797250 142.563750
3901 1 5.431000 21.724000 146.637000
3902 1 5.431000 24.439500 149.352500
3903 1 8.146500 21.724000 149.352500
3904 1 8.146500 24.439500 146.637000
3905 1 6.788750 23.081750 147.994750
3906 1 6.788750 25.797250 150.710250
3907 1 9.504250 23.081750 150.710250
3908 1 9.504250 25.797250 147.994750
3909 1 5.431000 21.724000 152.068000
3910 1 5.431000 24.439500 154.783500
3911 1 8.146500 21.724000 154.783500
3912 1 8.146500 24.439500 152.068000
3913 1 6.788750 23.081750 153.425750
3914 1 6.788750 25.797250 156.141250
3915 1 9.504250 23.081750 156.141250
3916 1 9.504250 25.797250 153.425750
3917 1 5.431000 21.724000 157.499000
3918 1 5.431000 24.439500 160.214500
3919 1 8.146500 21.724000 160.214500
3920 1 8.146500 24.439500 157.499000
3921 1 6.788750 23.081750 158.856750
3922 1 6.788750 25.797250 161.572250
3923 1 9.504250 23.081750 161.572250
3924 1 9.504250 25.797250 158.856750
3925 1 5.431000 21.724000 162.930000
3926 1 5.431000 24.439500 165.645500
3927 1 8.146500 21.724000 165.645500
3928 1 8.146500 24.439500 162.930000
3929 1 6.788750 23.081750 164.287750
3930 1 6.788750 25.797250 167.003250
3931 1 9.504250 23.081750 167.003250
3932 1 9.504250 25.797250 164.287750
3933 1 5.431000 21.724000 168.361000
3934 1 5.431000 24.439500 171.076500
3935 1 8.146500 21.724000 171.076500
3936 1 8.146500 24.439500 168.361000
3937 1 6.788750 23.081750 169.718750
3938 1 6.788750 25.797250 172.434250
3939 1 9.504250 23.081750 172.434250
3940 1 9.504250 25.797250 169.718750
3941 1 5.431000 21.724000 173.792000
3942 1 5.431000 24.439500 176.507500
3943 1 8.146500 21.724000 176.507500
3944 1 8.146500 24.439500 173.792000
3945 1 6.788750 23.081750 175.149750
3946 1 6.788750 25.797250 177.865250
3947 1 9.504250 23.081750 177.865250
3948 1 9.504250 25.797250 175.149750
3949 1 5.431000 21.724000 179.223000
3950 1 5.431000 24.439500 181.938500
3951 1 8.146500 21.724000 181.938500
3952 1 8.146500 24.439500 179.223000
3953 1 6.788750 23.081750 180.580750
3954 1 6.788750 25.797250 183.296250
3955 1 9.504250 23.081750 183.296250
3956 1 9.504250 25.797250 180.580750
3957 1 5.431000 21.724000 184.654000
3958 1 5.431000 24.439500 187.369500
3959 1 8.146500 21.724000 187.369500
3960 1 8.146500 24.439500 184.654000
3961 1 6.788750 23.081750 186.011750
3962 1 6.788750 25.797250 188.727250
3963 1 9.504250 23.081750 188.727250
3964 1 9.504250 25.797250 186.011750
3965 1 5.431000 21.724000 190.085000
3966 1 5.431000 24.439500 192.800500
3967 1 8.146500 21.724000 192.800500
3968 1 8.146500 24.439500 190.085000
3969 1 6.788750 23.081750 191.442750
3970 1 6.788750 25.797250 194.158250
3971 1 9.504250 23.081750 194.158250
3972 1 9.504250 25.797250 191.442750
3973 1 5.431000 21.724000 195.516000
3974 1 5.431000 24.439500 198.231500
3975 1 8.146500 21.724000 198.231500
3976 1 8.146500 24.439500 195.516000
3977 1 6.788750 23.081750 196.873750
3978 1 6.788750 25.797250 199.589250
3979 1 9.504250 23.081750 199.589250
3980 1 9.504250 25.797250 196.873750
3981 1 5.431000 21.724000 200.947000
3982 1 5.431000 24.439500 203.662500
3983 1 8.146500 21.724000 203.662500
3984 1 8.146500 24.439500 200.947000
3985 1 6.788750 23.081750 202.304750
3986 1 6.788750 25.797250 205.020250
3987 1 9.504250 23.081750 205.020250
3988 1 9.504250 25.797250 202.304750
3989 1 5.431000 21.724000 206.378000
3990 1 5.431000 24.439500 209.093500
3991 1 8.146500 21.724000 209.093500
3992 1 8.146500 24.439500 206.378000
3993 1 6.788750 23.081750 207.735750
3994 1 6.788750 25.797250 210.451250
3995 1 9.504250 23.081750 210.451250
3996 1 9.504250 25.797250 207.735750
3997 1 5.431000 21.724000 211.809000
3998 1 5.431000 24.439500 214.524500
3999 1 8.146500 21.724000 214.524500
4000 1 8.146500 24.439500 211.809000
4001 1 6.788750 23.081750 213.166750
4002 1 6.788750 25.797250 215.882250
4003 1 9.504250 23.081750 215.882250
4004 1 9.504250 25.797250 213.166750
4005 1 5.431000 21.724000 217.240000
4006 1 5.431000 24.439500 219.955500
4007 1 8.146500 21.724000 219.955500
4008 1 8.146500 24.439500 217.240000
4009 1 6.788750 23.081750 218.597750
4010 1 6.788750 25.797250 221.313250
4011 1 9.504250 23.081750 221.313250
4012 1 9.504250 25.797250 218.597750
4013 1 5.431000 21.724000 222.671000
4014 1 5.431000 24.439500 225.386500
4015 1 8.146500 21.724000 225.386500
4016 1 8.146500 24.439500 222.671000
4017 1 6.788750 23.081750 224.028750
4018 1 6.788750 25.797250 226.744250
4019 1 9.504250 23.081750 226.744250
4020 1 9.504250 25.797250 224.028750
4021 1 5.431000 21.724000 228.102000
4022 1 5.431000 24.439500 230.817500
4023 1 8.146500 21.724000 230.817500
4024 1 8.146500 24.439500 228.102000
4025 1 6.788750 23.081750 229.459750
4026 1 6.788750 25.797250 232.175250
4027 1 9.504250 23.081750 232.175250
4028 1 9.504250 25.797250 229.459750
4029 1 5.431000 21.724000 233.533000
4030 1 5.431000 24.439500 236.248500
4031 1 8.146500 21.724000 236.248500
4032 1 8.146500 24.439500 233.533000
4033 1 6.788750 23.081750 234.890750
4034 1 6.788750 25.797250 237.606250
4035 1 9.504250 23.081750 237.606250
4036 1 9.504250 25.797250 234.890750
4037 1 5.431000 21.724000 238.964000
4038 1 5.431000 24.439500 241.679500
4039 1 8.146500 21.724000 241.679500
4040 1 8.146500 24.439500 238.964000
4041 1 6.788750 23.081750 240.321750
4042 1 6.788750 25.797250 243.037250
4043 1 9.504250 23.081750 243.037250
4044 1 9.504250 25.797250 240.321750
4045 1 5.431000 21.724000 244.395000
4046 1 5.431000 24.439500 247.110500
4047 1 8.146500 21.724000 247.110500
4048 1 8.146500 24.439500 244.395000
4049 1 6.788750 23.081750 245.752750
4050 1 6.788750 25.797250 248.468250
4051 1 9.504250 23.081750 248.468250
4052 1 9.504250 25.797250 245.752750
4053 1 5.431000 21.724000 249.826000
4054 1 5.431000 24.439500 252.541500
4055 1 8.146500 21.724000 252.541500
4056 1 8.146500 24.439500 249.826000
4057 1 6.788750 23.081750 251.183750
4058 1 6.788750 25.797250 253.899250
4059 1 9.504250 23.081750 253.899250
4060 1 9.504250 25.797250 251.183750
4061 1 5.431000 21.724000 255.257000
4062 1 5.431000 24.439500 257.972500
4063 1 8.146500 21.724000 257.972500
4064 1 8.146500 24.439500 255.257000
4065 1 6.788750 23.081750 256.614750
4066 1 6.788750 25.797250 259.330250
4067 1 9.504250 23.081750 259.330250
4068 1 9.504250 25.797250 256.614750
4069 1 5.431000 27.155000 0.000000
4070 1 5.431000 29.870500 2.715500
4071 1 8.146500 27.155000 2.715500
4072 1 8.146500 29.870500 0.000000
4073 1 6.788750 28.512750 1.357750
4074 1 6.788750 31.228250 4.073250
4075 1 9.504250 28.512750 4.073250
4076 1 9.504250 31.228250 1.357750
4077 1 5.431000 27.155000 5.431000
4078 1 5.431000 29.870500 8.146500
4079 1 8.146500 27.155000 8.146500
4080 1 8.146500 29.870500 5.431000
4081 1 6.788750 28.512750 6.788750
4082 1 6.788750 31.228250 9.504250
4083 1 9.504250 28.512750 9.504250
4084 1 9.504250 31.228250 6.788750
4085 1 5.431000 27.155000 10.862000
4086 1 5.431000 29.870500 13.577500
4087 1 8.146500 27.155000 13.577500
4088 1 8.146500 29.870500 10.862000
4089 1 6.788750 28.512750 12.219750
4090 1 6.788750 31.228250 14.935250
4091 1 9.504250 28.512750 14.935250
4092 1 9.504250 31.228250 12.219750
4093 1 5.431000 27.155000 16.293000
4094 1 5.431000 29.870500 19.008500
4095 1 8.146500 27.155000 19.008500
4096 1 8.146500 29.870500 16.293000
4097 1 6.788750 28.512750 17.650750
4098 1 6.788750 31.228250 20.366250
4099 1 9.504250 28.512750 20.366250
4100 1 9.504250 31.228250 17.650750
4101 1 5.431000 27.155000 21.724000
4102 1 5.431000 29.870500 24.439500
4103 1 8.146500 27.155000 24.439500
4104 1 8.146500 29.870500 21.724000
4105 1 6.788750 28.512750 23.081750
4106 1 6.788750 31.228250 25.797250
4107 1 9.504250 28.512750 25.797250
4108 1 9.504250 31.228250 23.081750
4109 1 5.431000 27.155000 27.155000
4110 1 5.431000 29.870500 29.870500
4111 1 8.146500 27.155000 29.870500
4112 1 8.146500 29.870500 27.155000
4113 1 6.788750 28.512750 28.512750
4114 1 6.788750 31.228250 31.228250
4115 1 9.504250 28.512750 31.228250
4116 1 9.504250 31.228250 28.512750
4117 1 5.431000 27.155000 32.586000
4118 1 5.431000 29.870500 35.301500
4119 1 8.146500 27.155000 35.301500
4120 1 8.146500 29.870500 32.586000
4121 1 6.788750 28.512750 33.943750
4122 1 6.788750 31.228250 36.659250
4123 1 9.504250 28.512750 36.659250
4124 1 9.504250 31.228250 33.943750
4125 1 5.431000 27.155000 38.017000
4126 1 5.431000 29.870500 40.732500
4127 1 8.146500 27.155000 40.732500
4128 1 8.146500 29.870500 38.017000
4129 1 6.788750 28.512750 39.374750
4130 1 6.788750 31.228250 42.090250
4131 1 9.504250 28.512750 42.090250
4132 1 9.504250 31.228250 39.374750
4133 1 5.431000 27.155000 43.448000
4134 1 5.431000 29.870500 46.163500
4135 1 8.146500 27.155000 46.163500
4136 1 8.146500 29.870500 43.448000
4137 1 6.788750 28.512750 44.805750
4138 1 6.788750 31.228250 47.521250
4139 1 9.504250 28.512750 47.521250
4140 1 9.504250 31.228250 44.805750
4141 1 5.431000 27.155000 48.879000
4142 1 5.431000 29.870500 51.594500
4143 1 8.146500 27.155000 51.594500
4144 1 8.146500 29.870500 48.879000
4145 1 6.788750 28.512750 50.236750
4146 1 6.788750 31.228250 52.952250
4147 1 9.504250 28.512750 52.952250
4148 1 9.504250 31.228250 50.236750
4149 1 5.431000 27.155000 54.310000
4150 1 5.431000 29.870500 57.025500
4151 1 8.146500 27.155000 57.025500
4152 1 8.146500 29.870500 54.310000
4153 1 6.788750 28.512750 55.667750
4154 1 6.788750 31.228250 58.383250
4155 1 9.504250 28.512750 58.383250
4156 1 9.504250 31.228250 55.667750
4157 1 5.431000 27.155000 59.741000
4158 1 5.431000 29.870500 62.456500
4159 1 8.146500 27.155000 62.456500
4160 1 8.146500 29.870500 59.741000
4161 1 6.788750 28.512750 61.098750
4162 1 6.788750 31.228250 63.814250
4163 1 9.504250 28.512750 63.814250
4164 1 9.504250 31.228250 61.098750
4165 1 5.431000 27.155000 65.172000
4166 1 5.431000 29.870500 67.887500
4167 1 8.146500 27.155000 67.887500
4168 1 8.146500 29.870500 65.172000
4169 1 6.788750 28.512750 66.529750
4170 1 6.788750 31.228250 69.245250
4171 1 9.504250 28.512750 69.245250
4172 1 9.504250 31.228250 66.529750
4173 1 5.431000 27.155000 70.603000
4174 1 5.431000 29.870500 73.318500
4175 1 8.146500 27.155000 73.318500
4176 1 8.146500 29.870500 70.603000
4177 1 6.788750 28.512750 71.960750
4178 1 6.788750 31.228250 74.676250
4179 1 9.504250 28.512750 74.676250
4180 1 9.504250 31.228250 71.960750
4181 1 5.431000 27.155000 76.034000
4182 1 5.431000 29.870500 78.749500
4183 1 8.146500 27.155000 78.749500
4184 1 8.146500 29.870500 76.034000
4185 1 6.788750 28.512750 77.391750
4186 1 6.788750 31.228250 80.107250
4187 1 9.504250 28.512750 80.107250
4188 1 9.504250 31.228250 77.391750
4189 1 5.431000 27.155000 81.465000
4190 1 5.431000 29.870500 84.180500
4191 1 8.146500 27.155000 84.180500
4192 1 8.146500 29.870500 81.465000
4193 1 6.788750 28.512750 82.822750
4194 1 6.788750 31.228250 85.538250
4195 1 9.504250 28.512750 85.538250
4196 1 9.504250 31.228250 82.822750
4197 1 5.431000 27.155000 86.896000
4198 1 5.431000 29.870500 89.611500
4199 1 8.146500 27.155000 89.611500
4200 1 8.146500 29.870500 86.896000
4201 1 6.788750 28.512750 88.253750
4202 1 6.788750 31.228250 90.969250
4203 1 9.504250 28.512750 90.969250
4204 1 9.504250 31.228250 88.253750
4205 1 5.431000 27.155000 92.327000
4206 1 5.431000 29.870500 95.042500
4207 1 8.146500 27.155000 95.042500
4208 1 8.146500 29.870500 92.327000
4209 1 6.788750 28.512750 93.684750
4210 1 6.788750 31.228250 96.400250
4211 1 9.504250 28.512750 96.400250
4212 1 9.504250 31.228250 93.684750
4213 1 5.431000 27.155000 97.758000
4214 1 5.431000 29.870500 100.473500
4215 1 8.146500 27.155000 100.473500
4216 1 8.146500 29.870500 97.758000
4217 1 6.788750 28.512750 99.115750
4218 1 6.788750 31.228250 101.831250
4219 1 9.504250 28.512750 101.831250
4220 1 9.504250 31.228250 99.115750
4221 1 5.431000 27.155000 103.189000
4222 1 5.431000 29.870500 105.904500
4223 1 8.146500 27.155000 105.904500
4224 1 8.146500 29.870500 103.189000
4225 1 6.788750 28.512750 104.546750
4226 1 6.788750 31.228250 107.262250
4227 1 9.504250 28.512750 107.262250
4228 1 9.504250 31.228250 104.546750
4229 1 5.431000 27.155000 108.620000
4230 1 5.431000 29.870500 111.335500
4231 1 8.146500 27.155000 111.335500
4232 1 8.146500 29.870500 108.620000
4233 1 6.788750 28.512750 109.977750
4234 1 6.788750 31.228250 112.693250
4235 1 9.504250 28.512750 112.693250
4236 1 9.504250 31.228250 109.977750
4237 1 5.431000 27.155000 114.051000
4238 1 5.431000 29.870500 116.766500
4239 1 8.146500 27.155000 116.766500
4240 1 8.146500 29.870500 114.051000
4241 1 6.788750 28.512750 115.408750
4242 1 6.788750 31.228250 118.124250
4243 1 9.504250 28.512750 118.124250
4244 1 9.504250 31.228250 115.408750
4245 1 5.431000 27.155000 119.482000
4246 1 5.431000 29.870500 122.197500
4247 1 8.146500 27.155000 122.197500
4248 1 8.146500 29.870500 119.482000
4249 1 6.788750 28.512750 120.839750
4250 1 6.788750 31.228250 123.555250
4251 1 9.504250 28.512750 123.555250
4252 1 9.504250 31.228250 120.839750
4253 1 5.431000 27.155000 124.913000
4254 1 5.431000 29.870500 127.628500
4255 1 8.146500 27.155000 127.628500
4256 1 8.146500 29.870500 124.913000
4257 1 6.788750 28.512750 126.270750
4258 1 6.788750 31.228250 128.986250
4259 1 9.504250 28.512750 128.986250
4260 1 9.504250 31.228250 126.270750
4261 1 5.431000 27.155000 130.344000
4262 1 5.431000 29.870500 133.059500
4263 1 8.146500 27.155000 133.059500
4264 1 8.146500 29.870500 130.344000
4265 1 6.788750 28.512750 131.701750
4266 1 6.788750 31.228250 134.417250
4267 1 9.504250 28.512750 134.417250
4268 1 9.504250 31.228250 131.701750
4269 1 5.431000 27.155000 135.775000
4270 1 5.431000 29.870500 138.490500
4271 1 8.146500 27.155000 138.490500
4272 1 8.146500 29.870500 135.775000
4273 1 6.788750 28.512750 137.132750
4274 1 6.788750 31.228250 139.848250
4275 1 9.504250 28.512750 139.848250
4276 1 9.504250 31.228250 137.132750
4277 1 5.431000 27.155000 141.206000
4278 1 5.431000 29.870500 143.921500
4279 1 8.146500 27.155000 143.921500
4280 1 8.146500 29.870500 141.206000
4281 1 6.788750 28.512750 142.563750
4282 1 6.788750 31.228250 145.279250
4283 1 9.504250 28.512750 145.279250
4284 1 9.504250 31.228250 142.563750
4285 1 5.431000 27.155000 146.637000
4286 1 5.431000 29.870500 149.352500
4287 1 8.146500 27.155000 149.352500
4288 1 8.146500 29.870500 146.637000
4289 1 6.788750 28.512750 147.994750
4290 1 6.788750 31.228250 150.710250
4291 1 9.504250 28.512750 150.710250
4292 1 9.504250 31.228250 147.994750
4293 1 5.431000 27.155000 152.068000
4294 1 5.431000 29.870500 154.783500
4295 1 8.146500 27.155000 154.783500
4296 1 8.146500 29.870500 152.068000
4297 1 6.788750 28.512750 153.425750
4298 1 6.788750 31.228250 156.141250
4299 1 9.504250 28.512750 156.141250
4300 1 9.504250 31.228250 153.425750
4301 1 5.431000 27.155000 157.499000
4302 1 5.431000 29.870500 160.214500
4303 1 8.146500 27.155000 160.214500
4304 1 8.146500 29.870500 157.499000
4305 1 6.788750 28.512750 158.856750
4306 1 6.788750 31.228250 161.572250
4307 1 9.504250 28.512750 161.572250
4308 1 9.504250 31.228250 158.856750
4309 1 5.431000 27.155000 162.930000
4310 1 5.431000 29.870500 165.645500
4311 1 8.146500 27.155000 165.645500
4312 1 8.146500 29.870500 162.930000
4313 1 6.788750 28.512750 164.287750
4314 1 6.788750 31.228250 167.003250
4315 1 9.504250 28.512750 167.003250
4316 1 9.504250 31.228250 164.287750
4317 1 5.431000 27.155000 168.361000
4318 1 5.431000 29.870500 171.076500
4319 1 8.146500 27.155000 171.076500
4320 1 8.146500 29.870500 168.361000
4321 1 6.788750 28.512750 169.718750
4322 1 6.788750 31.228250 172.434250
4323 1 9.504250 28.512750 172.434250
4324 1 9.504250 31.228250 169.718750
4325 1 5.431000 27.155000 173.792000
4326 1 5.431000 29.870500 176.507500
4327 1 8.146500 27.155000 176.507500
4328 1 8.146500 29.870500 173.792000
4329 1 6.788750 28.512750 175.149750
4330 1 6.788750 31.228250 177.865250
4331 1 9.504250 28.512750 177.865250
4332 1 9.504250 31.228250 175.149750
4333 1 5.431000 27.155000 179.223000
4334 1 5.431000 29.870500 181.938500
4335 1 8.146500 27.155000 181.938500
4336 1 8.146500 29.870500 179.223000
4337 1 6.788750 28.512750 180.580750
4338 1 6.788750 31.228250 183.296250
4339 1 9.504250 28.512750 183.296250
4340 1 9.504250 31.228250 180.580750
4341 1 5.431000 27.155000 184.654000
4342 1 5.431000 29.870500 187.369500
4343 1 8.146500 27.155000 187.369500
4344 1 8.146500 29.870500 184.654000
4345 1 6.788750 28.512750 186.011750
4346 1 6.788750 31.228250 188.727250
4347 1 9.504250 28.512750 188.727250
4348 1 9.504250 31.228250 186.011750
4349 1 5.431000 27.155000 190.085000
4350 1 5.431000 29.870500 192.800500
4351 1 8.146500 27.155000 192.800500
4352 1 8.146500 29.870500 190.085000
4353 1 6.788750 28.512750 191.442750
4354 1 6.788750 31.228250 194.158250
4355 1 9.504250 28.512750 194.158250
4356 1 9.504250 31.228250 191.442750
4357 1 5.431000 27.155000 195.516000
4358 1 5.431000 29.870500 198.231500
4359 1 8.146500 27.155000 198.231500
4360 1 8.146500 29.870500 195.516000
4361 1 6.788750 28.512750 196.873750
4362 1 6.788750 31.228250 199.589250
4363 1 9.504250 28.512750 199.589250
4364 1 9.504250 31.228250 196.873750
4365 1 5.431000 27.155000 200.947000
4366 1 5.431000 29.870500 203.662500
4367 1 8.146500 27.155000 203.662500
4368 1 8.146500 29.870500 200.947000
4369 1 6.788750 28.512750 202.304750
4370 1 6.788750 31.228250 205.020250
4371 1 9.504250 28.512750 205.020250
4372 1 9.504250 31.228250 202.304750
4373 1 5.431000 27.155000 206.378000
4374 1 5.431000 29.870500 209.093500
4375 1 8.146500 27.155000 209.093500
4376 1 8.146500 29.870500 206.378000
4377 1 6.788750 28.512750 207.735750
4378 1 6.788750 31.228250 210.451250
4379 1 9.504250 28.512750 210.451250
4380 1 9.504250 31.228250 207.735750
4381 1 5.431000 27.155000 211.809000
4382 1 5.431000 29.870500 214.524500
4383 1 8.146500 27.155000 214.524500
4384 1 8.146500 29.870500 211.809000
4385 1 6.788750 28.512750 213.166750
4386 1 6.788750 31.228250 215.882250
4387 1 9.504250 28.512750 215.882250
4388 1 9.504250 31.228250 213.166750
4389 1 5.431000 27.155000 217.240000
4390 1 5.431000 29.870500 219.955500
4391 1 8.146500 27.155000 219.955500
4392 1 8.146500 29.870500 217.240000
4393 1 6.788750 28.512750 218.597750
4394 1 6.788750 31.228250 221.313250
4395 1 9.504250 28.512750 221.313250
4396 1 9.504250 31.228250 218.597750
4397 1 5.431000 27.155000 222.671000
4398 1 5.431000 29.870500 225.386500
4399 1 8.146500 27.155000 225.386500
4400 1 8.146500 29.870500 222.671000
4401 1 6.788750 28.512750 224.028750
4402 1 6.788750 31.228250 226.744250
4403 1 9.504250 28.512750 226.744250
4404 1 9.504250 31.228250 224.028750
4405 1 5.431000 27.155000 228.102000
4406 1 5.431000 29.870500 230.817500
4407 1 8.146500 27.155000 230.817500
4408 1 8.146500 29.870500 228.102000
4409 1 6.788750 28.512750 229.459750
4410 1 6.788750 31.228250 232.175250
4411 1 9.504250 28.512750 232.175250
4412 1 9.504250 31.228250 229.459750
4413 1 5.431000 27.155000 233.533000
4414 1 5.431000 29.870500 236.248500
4415 1 8.146500 27.155000 236.248500
4416 1 8.146500 29.870500 233.533000
4417 1 6.788750 28.512750 234.890750
4418 1 6.788750 31.228250 237.606250
4419 1 9.504250 28.512750 237.606250
4420 1 9.504250 31.228250 234.890750
4421 1 5.431000 27.155000 238.964000
4422 1 5.431000 29.870500 241.679500
4423 1 8.146500 27.155000 241.679500
4424 1 8.146500 29.870500 238.964000
4425 1 6.788750 28.512750 240.321750
4426 1 6.788750 31.228250 243.037250
4427 1 9.504250 28.512750 243.037250
4428 1 9.504250 31.228250 240.321750
4429 1 5.431000 27.155000 244.395000
4430 1 5.431000 29.870500 247.110500
4431 1 8.146500 27.155000 247.110500
4432 1 8.146500 29.870500 244.395000
4433 1 6.788750 28.512750 245.752750
4434 1 6.788750 31.228250 248.468250
4435 1 9.504250 28.512750 248.468250
4436 1 9.504250 31.228250 245.752750
4437 1 5.431000 27.155000 249.826000
4438 1 5.431000 29.870500 252.541500
4439 1 8.146500 27.155000 252.541500
4440 1 8.146500 29.870500 249.826000
4441 1 6.788750 28.512750 251.183750
4442 1 6.788750 31.228250 253.899250
4443 1 9.504250 28.512750 253.899250
4444 1 9.504250 31.228250 251.183750
4445 1 5.431000 27.155000 255.257000
4446 1 5.431000 29.870500 257.972500
4447 1 8.146500 27.155000 257.972500
4448 1 8.146500 29.870500 255.257000
4449 1 6.788750 28.512750 256.614750
4450 1 6.788750 31.228250 259.330250
4451 1 9.504250 28.512750 259.330250
4452 1 9.504250 31.228250 256.614750
4453 1 5.431000 32.586000 0.000000
4454 1 5.431000 35.301500 2.715500
4455 1 8.146500 32.586000 2.715500
4456 1 8.146500 35.301500 0.000000
4457 1 6.788750 33.943750 1.357750
4458 1 6.788750 36.659250 4.073250
4459 1 9.504250 33.943750 4.073250
4460 1 9.504250 36.659250 1.357750
4461 1 5.431000 32.586000 5.431000
4462 1 5.431000 35.301500 8.146500
4463 1 8.146500 32.586000 8.146500
4464 1 8.146500 35.301500 5.431000
4465 1 6.788750 33.943750 6.788750
4466 1 6.788750 36.659250 9.504250
4467 1 9.504250 33.943750 9.504250
4468 1 9.504250 36.659250 6.788750
4469 1 5.431000 32.586000 10.862000
4470 1 5.431000 35.301500 13.577500
4471 1 8.146500 32.586000 13.577500
4472 1 8.146500 35.301500 10.862000
4473 1 6.788750 33.943750 12.219750
4474 1 6.788750 36.659250 14.935250
4475 1 9.504250 33.943750 14.935250
4476 1 9.504250 36.659250 12.219750
4477 1 5.431000 32.586000 16.293000
4478 1 5.431000 35.301500 19.008500
4479 1 8.146500 32.586000 19.008500
4480 1 8.146500 35.301500 16.293000
4481 1 6.788750 33.943750 17.650750
4482 1 6.788750 36.659250 20.366250
4483 1 9.504250 33.943750 20.366250
4484 1 9.504250 36.659250 17.650750
4485 1 5.431000 32.586000 21.724000
4486 1 5.431000 35.301500 24.439500
4487 1 8.146500 32.586000 24.439500
4488 1 8.146500 35.301500 21.724000
4489 1 6.788750 33.943750 23.081750
4490 1 6.788750 36.659250 25.797250
4491 1 9.504250 33.943750 25.797250
4492 1 9.504250 36.659250 23.081750
4493 1 5.431000 32.586000 27.155000
4494 1 5.431000 35.301500 29.870500
4495 1 8.146500 32.586000 29.870500
4496 1 8.146500 35.301500 27.155000
4497 1 6.788750 33.943750 28.512750
4498 1 6.788750 36.659250 31.228250
4499 1 9.504250 33.943750 31.228250
4500 1 9.504250 36.659250 28.512750
4501 1 5.431000 32.586000 32.586000
4502 1 5.431000 35.301500 35.301500
4503 1 8.146500 32.586000 35.301500
4504 1 8.146500 35.301500 32.586000
4505 1 6.788750 33.943750 33.943750
4506 1 6.788750 36.659250 36.659250
4507 1 9.504250 33.943750 36.659250
4508 1 9.504250 36.659250 33.943750
4509 1 5.431000 32.586000 38.017000
4510 1 5.431000 35.301500 40.732500
4511 1 8.146500 32.586000 40.732500
4512 1 8.146500 35.301500 38.017000
4513 1 6.788750 33.943750 39.374750
4514 1 6.788750 36.659250 42.090250
4515 1 9.504250 33.943750 42.090250
4516 1 9.504250 36.659250 39.374750
4517 1 5.431000 32.586000 43.448000
4518 1 5.431000 35.301500 46.163500
4519 1 8.146500 32.586000 46.163500
4520 1 8.146500 35.301500 43.448000
4521 1 6.788750 33.943750 44.805750
4522 1 6.788750 36.659250 47.521250
4523 1 9.504250 33.943750 47.521250
4524 1 9.504250 36.659250 44.805750
4525 1 5.431000 32.586000 48.879000
4526 1 5.431000 35.301500 51.594500
4527 1 8.146500 32.586000 51.594500
4528 1 8.146500 35.301500 48.879000
4529 1 6.788750 33.943750 50.236750
4530 1 6.788750 36.659250 52.952250
4531 1 9.504250 33.943750 52.952250
4532 1 9.504250 36.659250 50.236750
4533 1 5.431000 32.586000 54.310000
4534 1 5.431000 35.301500 57.025500
4535 1 8.146500 32.586000 57.025500
4536 1 8.146500 35.301500 54.310000
4537 1 6.788750 33.943750 55.667750
4538 1 6.788750 36.659250 58.383250
4539 1 9.504250 33.943750 58.383250
4540 1 9.504250 36.659250 55.667750
4541 1 5.431000 32.586000 59.741000
4542 1 5.431000 35.301500 62.456500
4543 1 8.146500 32.586000 62.456500
4544 1 8.146500 35.301500 59.741000
4545 1 6.788750 33.943750 61.098750
4546 1 6.788750 36.659250 63.814250
4547 1 9.504250 33.943750 63.814250
4548 1 9.504250 36.659250 61.098750
4549 1 5.431000 32.586000 65.172000
4550 1 5.431000 35.301500 67.887500
4551 1 8.146500 32.586000 67.887500
4552 1 8.146500 35.301500 65.172000
4553 1 6.788750 33.943750 66.529750
4554 1 6.788750 36.659250 69.245250
4555 1 9.504250 33.943750 69.245250
4556 1 9.504250 36.659250 66.529750
4557 1 5.431000 32.586000 70.603000
4558 1 5.431000 35.301500 73.318500
4559 1 8.146500 32.586000 73.318500
4560 1 8.146500 35.301500 70.603000
4561 1 6.788750 33.943750 71.960750
4562 1 6.788750 36.659250 74.676250
4563 1 9.504250 33.943750 74.676250
4564 1 9.504250 36.659250 71.960750
4565 1 5.431000 32.586000 76.034000
4566 1 5.431000 35.301500 78.749500
4567 1 8.146500 32.586000 78.749500
4568 1 8.146500 35.301500 76.034000
4569 1 6.788750 33.943750 77.391750
4570 1 6.788750 36.659250 80.107250
4571 1 9.504250 33.943750 80.107250
4572 1 9.504250 36.659250 77.391750
4573 1 5.431000 32.586000 81.465000
4574 1 5.431000 35.301500 84.180500
4575 1 8.146500 32.586000 84.180500
4576 1 8.146500 35.301500 81.465000
4577 1 6.788750 33.943750 82.822750
4578 1 6.788750 36.659250 85.538250
4579 1 9.504250 33.943750 85.538250
4580 1 9.504250 36.659250 82.822750
4581 1 5.431000 32.586000 86.896000
4582 1 5.431000 35.301500 89.611500
4583 1 8.146500 32.586000 89.611500
4584 1 8.146500 35.301500 86.896000
4585 1 6.788750 33.943750 88.253750
4586 1 6.788750 36.659250 90.969250
4587 1 9.504250 33.943750 90.969250
4588 1 9.504250 36.659250 88.253750
4589 1 5.431000 32.586000 92.327000
4590 1 5.431000 35.301500 95.042500
4591 1 8.146500 32.586000 95.042500
4592 1 8.146500 35.301500 92.327000
4593 1 6.788750 33.943750 93.684750
4594 1 6.788750 36.659250 96.400250
4595 1 9.504250 33.943750 96.400250
4596 1 9.504250 36.659250 93.684750
4597 1 5.431000 32.586000 97.758000
4598 1 5.431000 35.301500 100.473500
4599 1 8.146500 32.586000 100.473500
4600 1 8.146500 35.301500 97.758000
4601 1 6.788750 33.943750 99.115750
4602 1 6.788750 36.659250 101.831250
4603 1 9.504250 33.943750 101.831250
4604 1 9.504250 36.659250 99.115750
4605 1 5.431000 32.586000 103.189000
4606 1 5.431000 35.301500 105.904500
4607 1 8.146500 32.586000 105.904500
4608 1 8.146500 35.301500 103.189000
4609 1 6.788750 33.943750 104.546750
4610 1 6.788750 36.659250 107.262250
4611 1 9.504250 33.943750 107.262250
4612 1 9.504250 36.659250 104.546750
4613 1 5.431000 32.586000 108.620000
4614 1 5.431000 35.301500 111.335500
4615 1 8.146500 32.586000 111.335500
4616 1 8.146500 35.301500 108.620000
4617 1 6.788750 33.943750 109.977750
4618 1 6.788750 36.659250 112.693250
4619 1 9.504250 33.943750 112.693250
4620 1 9.504250 36.659250 109.977750
4621 1 5.431000 32.586000 114.051000
4622 1 5.431000 35.301500 116.766500
4623 1 8.146500 32.586000 116.766500
4624 1 8.146500 35.301500 114.051000
4625 1 6.788750 33.943750 115.408750
4626 1 6.788750 36.659250 118.124250
4627 1 9.504250 33.943750 118.124250
4628 1 9.504250 36.659250 115.408750
4629 1 5.431000 32.586000 119.482000
4630 1 5.431000 35.301500 122.197500
4631 1 8.146500 32.586000 122.197500
4632 1 8.146500 35.301500 119.482000
4633 1 6.788750 33.943750 120.839750
4634 1 6.788750 36.659250 123.555250
4635 1 9.504250 33.943750 123.555250
4636 1 9.504250 36.659250 120.839750
4637 1 5.431000 32.586000 124.913000
4638 1 5.431000 35.301500 127.628500
4639 1 8.146500 32.586000 127.628500
4640 1 8.146500 35.301500 124.913000
4641 1 6.788750 33.943750 126.270750
4642 1 6.788750 36.659250 128.986250
4643 1 9.504250 33.943750 128.986250
4644 1 9.504250 36.659250 126.270750
4645 1 5.431000 32.586000 130.344000
4646 1 5.431000 35.301500 133.059500
4647 1 8.146500 32.586000 133.059500
4648 1 8.146500 35.301500 130.344000
4649 1 6.788750 33.943750 131.701750
4650 1 6.788750 36.659250 134.417250
4651 1 9.504250 33.943750 134.417250
4652 1 9.504250 36.659250 131.701750
4653 1 5.431000 32.586000 135.775000
4654 1 5.431000 35.301500 138.490500
4655 1 8.146500 32.586000 138.490500
4656 1 8.146500 35.301500 135.775000
4657 1 6.788750 33.943750 137.132750
4658 1 6.788750 36.659250 139.848250
4659 1 9.504250 33.943750 139.848250
4660 1 9.504250 36.659250 137.132750
4661 1 5.431000 32.586000 141.206000
4662 1 5.431000 35.301500 143.921500
4663 1 8.146500 32.586000 143.921500
4664 1 8.146500 35.301500 141.206000
4665 1 6.788750 33.943750 142.563750
4666 1 6.788750 36.659250 145.279250
4667 1 9.504250 33.943750 145.279250
4668 1 9.504250 36.659250 142.563750
4669 1 5.431000 32.586000 146.637000
4670 1 5.431000 35.301500 149.352500
4671 1 8.146500 32.586000 149.352500
4672 1 8.146500 35.301500 146.637000
4673 1 6.788750 33.943750 147.994750
4674 1 6.788750 36.659250 150.710250
4675 1 9.504250 33.943750 150.710250
4676 1 9.504250 36.659250 147.994750
4677 1 5.431000 32.586000 152.068000
4678 1 5.431000 35.301500 154.783500
4679 1 8.146500 32.586000 154.783500
4680 1 8.146500 35.301500 152.068000
4681 1 6.788750 33.943750 153.425750
4682 1 6.788750 36.659250 156.141250
4683 1 9.504250 33.943750 156.141250
4684 1 9.504250 36.659250 153.425750
4685 1 5.431000 32.586000 157.499000
4686 1 5.431000 35.301500 160.214500
4687 1 8.146500 32.586000 160.214500
4688 1 8.146500 35.301500 157.499000
4689 1 6.788750 33.943750 158.856750
4690 1 6.788750 36.659250 161.572250
4691 1 9.504250 33.943750 161.572250
4692 1 9.504250 36.659250 158.856750
4693 1 5.431000 32.586000 162.930000
4694 1 5.431000 35.301500 165.645500
4695 1 8.146500 32.586000 165.645500
4696 1 8.146500 35.301500 162.930000
4697 1 6.788750 33.943750 164.287750
4698 1 6.788750 36.659250 167.003250
4699 1 9.504250 33.943750 167.003250
4700 1 9.504250 36.659250 164.287750
4701 1 5.431000 32.586000 168.361000
4702 1 5.431000 35.301500 171.076500
4703 1 8.146500 32.586000 171.076500
4704 1 8.146500 35.301500 168.361000
4705 1 6.788750 33.943750 169.718750
4706 1 6.788750 36.659250 172.434250
4707 1 9.504250 33.943750 172.434250
4708 1 9.504250 36.659250 169.718750
4709 1 5.431000 32.586000 173.792000
4710 1 5.431000 35.301500 176.507500
4711 1 8.146500 32.586000 176.507500
4712 1 8.146500 35.301500 173.792000
4713 1 6.788750 33.943750 175.149750
4714 1 6.788750 36.659250 177.865250
4715 1 9.504250 33.943750 177.865250
4716 1 9.504250 36.659250 175.149750
4717 1 5.431000 32.586000 179.223000
4718 1 5.431000 35.301500 181.938500
4719 1 8.146500 32.586000 181.938500
4720 1 8.146500 35.301500 179.223000
4721 1 6.788750 33.943750 180.580750
4722 1 6.788750 36.659250 183.296250
4723 1 9.504250 33.943750 183.296250
4724 1 9.504250 36.659250 180.580750
4725 1 5.431000 32.586000 184.654000
4726 1 5.431000 35.301500 187.369500
4727 1 8.146500 32.586000 187.369500
4728 1 8.146500 35.301500 184.654000
4729 1 6.788750 33.943750 186.011750
4730 1 6.788750 36.659250 188.727250
4731 1 9.504250 33.943750 188.727250
4732 1 9.504250 36.659250 186.011750
4733 1 5.431000 32.586000 190.085000
4734 1 5.431000 35.301500 192.800500
4735 1 8.146500 32.586000 192.800500
4736 1 8.146500 35.301500 190.085000
4737 1 6.788750 33.943750 191.442750
4738 1 6.788750 36.659250 194.158250
4739 1 9.504250 33.943750 194.158250
4740 1 9.504250 36.659250 191.442750
4741 1 5.431000 32.586000 195.516000
4742 1 5.431000 35.301500 198.231500
4743 1 8.146500 32.586000 198.231500
4744 1 8.146500 35.301500 195.516000
4745 1 6.788750 33.943750 196.873750
4746 1 6.788750 36.659250 199.589250
4747 1 9.504250 33.943750 199.589250
4748 1 9.504250 36.659250 196.873750
4749 1 5.431000 32.586000 200.947000
4750 1 5.431000 35.301500 203.662500
4751 1 8.146500 32.586000 203.662500
4752 1 8.146500 35.301500 200.947000
4753 1 6.788750 33.943750 202.304750
4754 1 6.788750 36.659250 205.020250
4755 1 9.504250 33.943750 205.020250
4756 1 9.504250 36.659250 202.304750
4757 1 5.431000 32.586000 206.378000
4758 1 5.431000 35.301500 209.093500
4759 1 8.146500 32.586000 209.093500
4760 1 8.146500 35.301500 206.378000
4761 1 6.788750 33.943750 207.735750
4762 1 6.788750 36.659250 210.451250
4763 1 9.504250 33.943750 210.451250
4764 1 9.504250 36.659250 207.735750
4765 1 5.431000 32.586000 211.809000
4766 1 5.431000 35.301500 214.524500
4767 1 8.146500 32.586000 214.524500
4768 1 8.146500 35.301500 211.809000
4769 1 6.788750 33.943750 213.166750
4770 1 6.788750 36.659250 215.882250
4771 1 9.504250 33.943750 215.882250
4772 1 9.504250 36.659250 213.166750
4773 1 5.431000 32.586000 217.240000
4774 1 5.431000 35.301500 219.955500
4775 1 8.146500 32.586000 219.955500
4776 1 8.146500 35.301500 217.240000
4777 1 6.788750 33.943750 218.597750
4778 1 6.788750 36.659250 221.313250
4779 1 9.504250 33.943750 221.313250
4780 1 9.504250 36.659250 218.597750
4781 1 5.431000 32.586000 222.671000
4782 1 5.431000 35.301500 225.386500
4783 1 8.146500 32.586000 225.386500
4784 1 8.146500 35.301500 222.671000
4785 1 6.788750 33.943750 224.028750
4786 1 6.788750 36.659250 226.744250
4787 1 9.504250 33.943750 226.744250
4788 1 9.504250 36.659250 224.028750
4789 1 5.431000 32.586000 228.102000
4790 1 5.431000 35.301500 230.817500
4791 1 8.146500 32.586000 230.817500
4792 1 8.146500 35.301500 228.102000
4793 1 6.788750 33.943750 229.459750
4794 1 6.788750 36.659250 232.175250
4795 1 9.504250 33.943750 232.175250
4796 1 9.504250 36.659250 229.459750
4797 1 5.431000 32.586000 233.533000
4798 1 5.431000 35.301500 236.248500
4799 1 8.146500 32.586000 236.248500
4800 1 8.146500 35.301500 233.533000
4801 1 6.788750 33.943750 234.890750
4802 1 6.788750 36.659250 237.606250
4803 1 9.504250 33.943750 237.606250
4804 1 9.504250 36.659250 234.890750
4805 1 5.431000 32.586000 238.964000
4806 1 5.431000 35.301500 241.679500
4807 1 8.146500 32.586000 241.679500
4808 1 8.146500 35.301500 238.964000
4809 1 6.788750 33.943750 240.321750
4810 1 6.788750 36.659250 243.037250
4811 1 9.504250 33.943750 243.037250
4812 1 9.504250 36.659250 240.321750
4813 1 5.431000 32.586000 244.395000
4814 1 5.431000 35.301500 247.110500
4815 1 8.146500 32.586000 247.110500
4816 1 8.146500 35.301500 244.395000
4817 1 6.788750 33.943750 245.752750
4818 1 6.788750 36.659250 248.468250
4819 1 9.504250 33.943750 248.468250
4820 1 9.504250 36.659250 245.752750
4821 1 5.431000 32.586000 249.826000
4822 1 5.431000 35.301500 252.541500
4823 1 8.146500 32.586000 252.541500
4824 1 8.146500 35.301500 249.826000
4825 1 6.788750 33.943750 251.183750
4826 1 6.788750 36.659250 253.899250
4827 1 9.504250 33.943750 253.899250
4828 1 9.504250 36.659250 251.183750
4829 1 5.431000 32.586000 255.257000
4830 1 5.431000 35.301500 257.972500
4831 1 8.146500 32.586000 257.972500
4832 1 8.146500 35.301500 255.257000
4833 1 6.788750 33.943750 256.614750
4834 1 6.788750 36.659250 259.330250
4835 1 9.504250 33.943750 259.330250
4836 1 9.504250 36.659250 256.614750
4837 1 5.431000 38.017000 0.000000
4838 1 5.431000 40.732500 2.715500
4839 1 8.146500 38.017000 2.715500
4840 1 8.146500 40.732500 0.000000
4841 1 6.788750 39.374750 1.357750
4842 1 6.788750 42.090250 4.073250
4843 1 9.504250 39.374750 4.073250
4844 1 9.504250 42.090250 1.357750
4845 1 5.431000 38.017000 5.431000
4846 1 5.431000 40.732500 8.146500
4847 1 8.146500 38.017000 8.146500
4848 1 8.146500 40.732500 5.431000
4849 1 6.788750 39.374750 6.788750
4850 1 6.788750 42.090250 9.504250
4851 1 9.504250 39.374750 9.504250
4852 1 9.504250 42.090250 6.788750
4853 1 5.431000 38.017000 10.862000
4854 1 5.431000 40.732500 13.577500
4855 1 8.146500 38.017000 13.577500
4856 1 8.146500 40.732500 10.862000
4857 1 6.788750 39.374750 12.219750
4858 1 6.788750 42.090250 14.935250
4859 1 9.504250 39.374750 14.935250
4860 1 9.504250 42.090250 12.219750
4861 1 5.431000 38.017000 16.293000
4862 1 5.431000 40.732500 19.008500
4863 1 8.146500 38.017000 19.008500
4864 1 8.146500 40.732500 16.293000
4865 1 6.788750 39.374750 17.650750
4866 1 6.788750 42.090250 20.366250
4867 1 9.504250 39.374750 20.366250
4868 1 9.504250 42.090250 17.650750
4869 1 5.431000 38.017000 21.724000
4870 1 5.431000 40.732500 24.439500
4871 1 8.146500 38.017000 24.439500
4872 1 8.146500 40.732500 21.724000
4873 1 6.788750 39.374750 23.081750
4874 1 6.788750 42.090250 25.797250
4875 1 9.504250 39.374750 25.797250
4876 1 9.504250 42.090250 23.081750
4877 1 5.431000 38.017000 27.155000
4878 1 5.431000 40.732500 29.870500
4879 1 8.146500 38.017000 29.870500
4880 1 8.146500 40.732500 27.155000
4881 1 6.788750 39.374750 28.512750
4882 1 6.788750 42.090250 31.228250
4883 1 9.504250 39.374750 31.228250
4884 1 9.504250 42.090250 28.512750
4885 1 5.431000 38.017000 32.586000
4886 1 5.431000 40.732500 35.301500
4887 1 8.146500 38.017000 35.301500
4888 1 8.146500 40.732500 32.586000
4889 1 6.788750 39.374750 33.943750
4890 1 6.788750 42.090250 36.659250
4891 1 9.504250 39.374750 36.659250
4892 1 9.504250 42.090250 33.943750
4893 1 5.431000 38.017000 38.017000
4894 1 5.431000 40.732500 40.732500
4895 1 8.146500 38.017000 40.732500
4896 1 8.146500 40.732500 38.017000
4897 1 6.788750 39.374750 39.374750
4898 1 6.788750 42.090250 42.090250
4899 1 9.504250 39.374750 42.090250
4900 1 9.504250 42.090250 39.374750
4901 1 5.431000 38.017000 43.448000
4902 1 5.431000 40.732500 46.163500
4903 1 8.146500 38.017000 46.163500
4904 1 8.146500 40.732500 43.448000
4905 1 6.788750 39.374750 44.805750
4906 1 6.788750 42.090250 47.521250
4907 1 9.504250 39.374750 47.521250
4908 1 9.504250 42.090250 44.805750
4909 1 5.431000 38.017000 48.879000
4910 1 5.431000 40.732500 51.594500
4911 1 8.146500 38.017000 51.594500
4912 1 8.146500 40.732500 48.879000
4913 1 6.788750 39.374750 50.236750
4914 1 6.788750 42.090250 52.952250
4915 1 9.504250 39.374750 52.952250
4916 1 9.504250 42.090250 50.236750
4917 1 5.431000 38.017000 54.310000
4918 1 5.431000 40.732500 57.025500
4919 1 8.146500 38.017000 57.025500
4920 1 8.146500 40.732500 54.310000
4921 1 6.788750 39.374750 55.667750
4922 1 6.788750 42.090250 58.383250
4923 1 9.504250 39.374750 58.383250
4924 1 9.504250 42.090250 55.667750
4925 1 5.431000 38.017000 59.741000
4926 1 5.431000 40.732500 62.456500
4927 1 8.146500 38.017000 62.456500
4928 1 8.146500 40.732500 59.741000
4929 1 6.788750 39.374750 61.098750
4930 1 6.788750 42.090250 63.814250
4931 1 9.504250 39.374750 63.814250
4932 1 9.504250 42.090250 61.098750
4933 1 5.431000 38.017000 65.172000
4934 1 5.431000 40.732500 67.887500
4935 1 8.146500 38.017000 67.887500
4936 1 8.146500 40.732500 65.172000
4937 1 6.788750 39.374750 66.529750
4938 1 6.788750 42.090250 69.245250
4939 1 9.504250 39.374750 69.245250
4940 1 9.504250 42.090250 66.529750
4941 1 5.431000 38.017000 70.603000
4942 1 5.431000 40.732500 73.318500
4943 1 8.146500 38.017000 73.318500
4944 1 8.146500 40.732500 70.603000
4945 1 6.788750 39.374750 71.960750
4946 1 6.788750 42.090250 74.676250
4947 1 9.504250 39.374750 74.676250
4948 1 9.504250 42.090250 71.960750
4949 1 5.431000 38.017000 76.034000
4950 1 5.431000 40.732500 78.749500
4951 1 8.146500 38.017000 78.749500
4952 1 8.146500 40.732500 76.034000
4953 1 6.788750 39.374750 77.391750
4954 1 6.788750 42.090250 80.107250
4955 1 9.504250 39.374750 80.107250
4956 1 9.504250 42.090250 77.391750
4957 1 5.431000 38.017000 81.465000
4958 1 5.431000 40.732500 84.180500
4959 1 8.146500 38.017000 84.180500
4960 1 8.146500 40.732500 81.465000
4961 1 6.788750 39.374750 82.822750
4962 1 6.788750 42.090250 85.538250
4963 1 9.504250 39.374750 85.538250
4964 1 9.504250 42.090250 82.822750
4965 1 5.431000 38.017000 86.896000
4966 1 5.431000 40.732500 89.611500
4967 1 8.146500 38.017000 89.611500
4968 1 8.146500 40.732500 86.896000
4969 1 6.788750 39.374750 88.253750
4970 1 6.788750 42.090250 90.969250
4971 1 9.504250 39.374750 90.969250
4972 1 9.504250 42.090250 88.253750
4973 1 5.431000 38.017000 92.327000
4974 1 5.431000 40.732500 95.042500
4975 1 8.146500 38.017000 95.042500
4976 1 8.146500 40.732500 92.327000
4977 1 6.788750 39.374750 93.684750
4978 1 6.788750 42.090250 96.400250
4979 1 9.504250 39.374750 96.400250
4980 1 9.504250 42.090250 93.684750
4981 1 5.431000 38.017000 97.758000
4982 1 5.431000 40.732500 100.473500
4983 1 8.146500 38.017000 100.473500
4984 1 8.146500 40.732500 97.758000
4985 1 6.788750 39.374750 99.115750
4986 1 6.788750 42.090250 101.831250
4987 1 9.504250 39.374750 101.831250
4988 1 9.504250 42.090250 99.115750
4989 1 5.431000 38.017000 103.189000
4990 1 5.431000 40.732500 105.904500
4991 1 8.146500 38.017000 105.904500
4992 1 8.146500 40.732500 103.189000
4993 1 6.788750 39.374750 104.546750
4994 1 6.788750 42.090250 107.262250
4995 1 9.504250 39.374750 107.262250
4996 1 9.504250 42.090250 104.546750
4997 1 5.431000 38.017000 108.620000
4998 1 5.431000 40.732500 111.335500
4999 1 8.146500 38.017000 111.335500
5000 1 8.146500 40.732500 108.620000
5001 1 6.788750 39.374750 109.977750
5002 1 6.788750 42.090250 112.693250
5003 1 9.504250 39.374750 112.693250
5004 1 9.504250 42.090250 109.977750
5005 1 5.431000 38.017000 114.051000
5006 1 5.431000 40.732500 116.766500
5007 1 8.146500 38.017000 116.766500
5008 1 8.146500 40.732500 114.051000
5009 1 6.788750 39.374750 115.408750
5010 1 6.788750 42.090250 118.124250
5011 1 9.504250 39.374750 118.124250
5012 1 9.504250 42.090250 115.408750
5013 1 5.431000 38.017000 119.482000
5014 1 5.431000 40.732500 122.197500
5015 1 8.146500 38.017000 122.197500
5016 1 8.146500 40.732500 119.482000
5017 1 6.788750 39.374750 120.839750
5018 1 6.788750 42.090250 123.555250
5019 1 9.504250 39.374750 123.555250
5020 1 9.504250 42.090250 120.839750
5021 1 5.431000 38.017000 124.913000
5022 1 5.431000 40.732500 127.628500
5023 1 8.146500 38.017000 127.628500
5024 1 8.146500 40.732500 124.913000
5025 1 6.788750 39.374750 126.270750
5026 1 6.788750 42.090250 128.986250
5027 1 9.504250 39.374750 128.986250
5028 1 9.504250 42.090250 126.270750
5029 1 5.431000 38.017000 130.344000
5030 1 5.431000 40.732500 133.059500
5031 1 8.146500 38.017000 133.059500
5032 1 8.146500 40.732500 130.344000
5033 1 6.788750 39.374750 131.701750
5034 1 6.788750 42.090250 134.417250
5035 1 9.504250 39.374750 134.417250
5036 1 9.504250 42.090250 131.701750
5037 1 5.431000 38.017000 135.775000
5038 1 5.431000 40.732500 138.490500
5039 1 8.146500 38.017000 138.490500
5040 1 8.146500 40.732500 135.775000
5041 1 6.788750 39.374750 137.132750
5042 1 6.788750 42.090250 139.848250
5043 1 9.504250 39.374750 139.848250
5044 1 9.504250 42.090250 137.132750
5045 1 5.431000 38.017000 141.206000
5046 1 5.431000 40.732500 143.921500
5047 1 8.146500 38.017000 143.921500
5048 1 8.146500 40.732500 141.206000
5049 1 6.788750 39.374750 142.563750
5050 1 6.788750 42.090250 145.279250
5051 1 9.504250 39.374750 145.279250
5052 1 9.504250 42.090250 142.563750
5053 1 5.431000 38.017000 146.637000
5054 1 5.431000 40.732500 149.352500
5055 1 8.146500 38.017000 149.352500
5056 1 8.146500 40.732500 146.637000
5057 1 6.788750 39.374750 147.994750
5058 1 6.788750 42.090250 150.710250
5059 1 9.504250 39.374750 150.710250
5060 1 9.504250 42.090250 147.994750
5061 1 5.431000 38.017000 152.068000
5062 1 5.431000 40.732500 154.783500
5063 1 8.146500 38.017000 154.783500
5064 1 8.146500 40.732500 152.068000
5065 1 6.788750 39.374750 153.425750
5066 1 6.788750 42.090250 156.141250
5067 1 9.504250 39.374750 156.141250
5068 1 9.504250 42.090250 153.425750
5069 1 5.431000 38.017000 157.499000
5070 1 5.431000 40.732500 160.214500
5071 1 8.146500 38.017000 160.214500
5072 1 8.146500 40.732500 157.499000
5073 1 6.788750 39.374750 158.856750
5074 1 6.788750 42.090250 161.572250
5075 1 9.504250 39.374750 161.572250
5076 1 9.504250 42.090250 158.856750
5077 1 5.431000 38.017000 162.930000
5078 1 5.431000 40.732500 165.645500
5079 1 8.146500 38.017000 165.645500
5080 1 8.146500 40.732500 162.930000
5081 1 6.788750 39.374750 164.287750
5082 1 6.788750 42.090250 167.003250
5083 1 9.504250 39.374750 167.003250
5084 1 9.504250 42.090250 164.287750
5085 1 5.431000 38.017000 168.361000
5086 1 5.431000 40.732500 171.076500
5087 1 8.146500 38.017000 171.076500
5088 1 8.146500 40.732500 168.361000
5089 1 6.788750 39.374750 169.718750
5090 1 6.788750 42.090250 172.434250
5091 1 9.504250 39.374750 172.434250
5092 1 9.504250 42.090250 169.718750
5093 1 5.431000 38.017000 173.792000
5094 1 5.431000 40.732500 176.507500
5095 1 8.146500 38.017000 176.507500
5096 1 8.146500 40.732500 173.792000
5097 1 6.788750 39.374750 175.149750
5098 1 6.788750 42.090250 177.865250
5099 1 9.504250 39.374750 177.865250
5100 1 9.504250 42.090250 175.149750
5101 1 5.431000 38.017000 179.223000
5102 1 5.431000 40.732500 181.938500
5103 1 8.146500 38.017000 181.938500
5104 1 8.146500 40.732500 179.223000
5105 1 6.788750 39.374750 180.580750
5106 1 6.788750 42.090250 183.296250
5107 1 9.504250 39.374750 183.296250
5108 1 9.504250 42.090250 180.580750
5109 1 5.431000 38.017000 184.654000
5110 1 5.431000 40.732500 187.369500
5111 1 8.146500 38.017000 187.369500
5112 1 8.146500 40.732500 184.654000
5113 1 6.788750 39.374750 186.011750
5114 1 6.788750 42.090250 188.727250
5115 1 9.504250 39.374750 188.727250
5116 1 9.504250 42.090250 186.011750
5117 1 5.431000 38.017000 190.085000
5118 1 5.431000 40.732500 192.800500
5119 1 8.146500 38.017000 192.800500
5120 1 8.146500 40.732500 190.085000
5121 1 6.788750 39.374750 191.442750
5122 1 6.788750 42.090250 194.158250
5123 1 9.504250 39.374750 194.158250
5124 1 9.504250 42.090250 191.442750
5125 1 5.431000 38.017000 195.516000
5126 1 5.431000 40.732500 198.231500
5127 1 8.146500 38.017000 198.231500
5128 1 8.146500 40.732500 195.516000
5129 1 6.788750 39.374750 196.873750
5130 1 6.788750 42.090250 199.589250
5131 1 9.504250 39.374750 199.589250
5132 1 9.504250 42.090250 196.873750
5133 1 5.431000 38.017000 200.947000
5134 1 5.431000 40.732500 203.662500
5135 1 8.146500 38.017000 203.662500
5136 1 8.146500 40.732500 200.947000
5137 1 6.788750 39.374750 202.304750
5138 1 6.788750 42.090250 205.020250
5139 1 9.504250 39.374750 205.020250
5140 1 9.504250 42.090250 202.304750
5141 1 5.431000 38.017000 206.378000
5142 1 5.431000 40.732500 209.093500
5143 1 8.146500 38.017000 209.093500
5144 1 8.146500 40.732500 206.378000
5145 1 6.788750 39.374750 207.735750
5146 1 6.788750 42.090250 210.451250
5147 1 9.504250 39.374750 210.451250
5148 1 9.504250 42.090250 207.735750
5149 1 5.431000 38.017000 211.809000
5150 1 5.431000 40.732500 214.524500
5151 1 8.146500 38.017000 214.524500
5152 1 8.146500 40.732500 211.809000
5153 1 6.788750 39.374750 213.166750
5154 1 6.788750 42.090250 215.882250
5155 1 9.504250 39.374750 215.882250
5156 1 9.504250 42.090250 213.166750
5157 1 5.431000 38.017000 217.240000
5158 1 5.431000 40.732500 219.955500
5159 1 8.146500 38.017000 219.955500
5160 1 8.146500 40.732500 217.240000
5161 1 6.788750 39.374750 218.597750
5162 1 6.788750 42.090250 221.313250
5163 1 9.504250 39.374750 221.313250
5164 1 9.504250 42.090250 218.597750
5165 1 5.431000 38.017000 222.671000
5166 1 5.431000 40.732500 225.386500
5167 1 8.146500 38.017000 225.386500
5168 1 8.146500 40.732500 222.671000
5169 1 6.788750 39.374750 224.028750
5170 1 6.788750 42.090250 226.744250
5171 1 9.504250 39.374750 226.744250
5172 1 9.504250 42.090250 224.028750
5173 1 5.431000 38.017000 228.102000
5174 1 5.431000 40.732500 230.817500
5175 1 8.146500 38.017000 230.817500
5176 1 8.146500 40.732500 228.102000
5177 1 6.788750 39.374750 229.459750
5178 1 6.788750 42.090250 232.175250
5179 1 9.504250 39.374750 232.175250
5180 1 9.504250 42.090250 229.459750
5181 1 5.431000 38.017000 233.533000
5182 1 5.431000 40.732500 236.248500
5183 1 8.146500 38.017000 236.248500
5184 1 8.146500 40.732500 233.533000
5185 1 6.788750 39.374750 234.890750
5186 1 6.788750 42.090250 237.606250
5187 1 9.504250 39.374750 237.606250
5188 1 9.504250 42.090250 234.890750
5189 1 5.431000 38.017000 238.964000
5190 1 5.431000 40.732500 241.679500
5191 1 8.146500 38.017000 241.679500
5192 1 8.146500 40.732500 238.964000
5193 1 6.788750 39.374750 240.321750
5194 1 6.788750 42.090250 243.037250
5195 1 9.504250 39.374750 243.037250
5196 1 9.504250 42.090250 240.321750
5197 1 5.431000 38.017000 244.395000
5198 1 5.431000 40.732500 247.110500
5199 1 8.146500 38.017000 247.110500
5200 1 8.146500 40.732500 244.395000
5201 1 6.788750 39.374750 245.752750
5202 1 6.788750 42.090250 248.468250
5203 1 9.504250 39.374750 248.468250
5204 1 9.504250 42.090250 245.752750
5205 1 5.431000 38.017000 249.826000
5206 1 5.431000 40.732500 252.541500
5207 1 8.146500 38.017000 252.541500
5208 1 8.146500 40.732500 249.826000
5209 1 6.788750 39.374750 251.183750
5210 1 6.788750 42.090250 253.899250
5211 1 9.504250 39.374750 253.899250
5212 1 9.504250 42.090250 251.183750
5213 1 5.431000 38.017000 255.257000
5214 1 5.431000 40.732500 257.972500
5215 1 8.146500 38.017000 257.972500
5216 1 8.146500 40.732500 255.257000
5217 1 6.788750 39.374750 256.614750
5218 1 6.788750 42.090250 259.330250
5219 1 9.504250 39.374750 259.330250
5220 1 9.504250 42.090250 256.614750
5221 1 10.862000 2.715500 24.439500
5222 1 13.577500 0.000000 24.439500
5223 1 12.219750 1.357750 23.081750
5224 1 12.219750 4.073250 25.797250
5225 1 14.935250 1.357750 25.797250
5226 1 14.935250 4.073250 23.081750
5227 1 10.862000 0.000000 27.155000
5228 1 10.862000 2.715500 29.870500
5229 1 13.577500 0.000000 29.870500
5230 1 13.577500 2.715500 27.155000
5231 1 12.219750 1.357750 28.512750
5232 1 12.219750 4.073250 31.228250
5233 1 14.935250 1.357750 31.228250
5234 1 14.935250 4.073250 28.512750
5235 1 10.862000 0.000000 32.586000
5236 1 10.862000 2.715500 35.301500
5237 1 13.577500 0.000000 35.301500
5238 1 13.577500 2.715500 32.586000
5239 1 12.219750 1.357750 33.943750
5240 1 12.219750 4.073250 36.659250
5241 1 14.935250 1.357750 36.659250
5242 1 14.935250 4.073250 33.943750
5243 1 10.862000 0.000000 38.017000
5244 1 10.862000 2.715500 40.732500
5245 1 13.577500 0.000000 40.732500
5246 1 13.577500 2.715500 38.017000
5247 1 12.219750 1.357750 39.374750
5248 1 12.219750 4.073250 42.090250
5249 1 14.935250 1.357750 42.090250
5250 1 14.935250 4.073250 39.374750
5251 1 10.862000 2.715500 67.887500
5252 1 13.577500 0.000000 67.887500
5253 1 12.219750 1.357750 66.529750
5254 1 12.219750 4.073250 69.245250
5255 1 14.935250 1.357750 69.245250
5256 1 14.935250 4.073250 66.529750
5257 1 10.862000 0.000000 70.603000
5258 1 10.862000 2.715500 73.318500
5259 1 13.577500 0.000000 73.318500
5260 1 13.577500 2.715500 70.603000
5261 1 12.219750 1.357750 71.960750
5262 1 12.219750 4.073250 74.676250
5263 1 14.935250 1.357750 74.676250
5264 1 14.935250 4.073250 71.960750
5265 1 10.862000 0.000000 76.034000
5266 1 10.862000 2.715500 78.749500
5267 1 13.577500 0.000000 78.749500
5268 1 13.577500 2.715500 76.034000
5269 1 12.219750 1.357750 77.391750
5270 1 12.219750 4.073250 80.107250
5271 1 14.935250 1.357750 80.107250
5272 1 14.935250 4.073250 77.391750
5273 1 10.862000 0.000000 81.465000
5274 1 10.862000 2.715500 84.180500
5275 1 13.577500 0.000000 84.180500
5276 1 13.577500 2.715500 81.465000
5277 1 12.219750 1.357750 82.822750
5278 1 12.219750 4.073250 85.538250
5279 1 14.935250 1.357750 85.538250
5280 1 14.935250 4.073250 82.822750
5281 1 10.862000 2.715500 111.335500
5282 1 13.577500 0.000000 111.335500
5283 1 12.219750 1.357750 109.977750
5284 1 12.219750 4.073250 112.693250
5285 1 14.935250 1.357750 112.693250
5286 1 14.935250 4.073250 109.977750
5287 1 10.862000 0.000000 114.051000
5288 1 10.862000 2.715500 116.766500
5289 1 13.577500 0.000000 116.766500
5290 1 13.577500 2.715500 114.051000
5291 1 12.219750 1.357750 115.408750
5292 1 12.219750 4.073250 118.124250
5293 1 14.935250 1.357750 118.124250
5294 1 14.935250 4.073250 115.408750
5295 1 10.862000 0.000000 119.482000
5296 1 10.862000 2.715500 122.197500
5297 1 13.577500 0.000000 122.197500
5298 1 13.577500 2.715500 119.482000
5299 1 12.219750 1.357750 120.839750
5300 1 12.219750 4.073250 123.555250
5301 1 14.935250 1.357750 123.555250
5302 1 14.935250 4.073250 120.839750
5303 1 10.862000 0.000000 124.913000
5304 1 10.862000 2.715500 127.628500
5305 1 13.577500 0.000000 127.628500
5306 1 13.577500 2.715500 124.913000
5307 1 12.219750 1.357750 126.270750
5308 1 12.219750 4.073250 128.986250
5309 1 14.935250 1.357750 128.986250
5310 1 14.935250 4.073250 126.270750
5311 1 10.862000 2.715500 154.783500
5312 1 13.577500 0.000000 154.783500
5313 1 12.219750 1.357750 153.425750
5314 1 12.219750 4.073250 156.141250
5315 1 14.935250 1.357750 156.141250
5316 1 14.935250 4.073250 153.425750
5317 1 10.862000 0.000000 157.499000
5318 1 10.862000 2.715500 160.214500
5319 1 13.577500 0.000000 160.214500
5320 1 13.577500 2.715500 157.499000
5321 1 12.219750 1.357750 158.856750
5322 1 12.219750 4.073250 161.572250
5323 1 14.935250 1.357750 161.572250
5324 1 14.935250 4.073250 158.856750
5325 1 10.862000 0.000000 162.930000
5326 1 10.862000 2.715500 165.645500
5327 1 13.577500 0.000000 165.645500
5328 1 13.577500 2.715500 162.930000
5329 1 12.219750 1.357750 164.287750
5330 1 12.219750 4.073250 167.003250
5331 1 14.935250 1.357750 167.003250
5332 1 14.935250 4.073250 164.287750
5333 1 10.862000 0.000000 168.361000
5334 1 10.862000 2.715500 171.076500
5335 1 13.577500 0.000000 171.076500
5336 1 13.577500 2.715500 168.361000
5337 1 12.219750 1.357750 169.718750
5338 1 12.219750 4.073250 172.434250
5339 1 14.935250 1.357750 172.434250
5340 1 14.935250 4.073250 169.718750
5341 1 10.862000 2.715500 198.231500
5342 1 13.577500 0.000000 198.231500
5343 1 12.219750 1.357750 196.873750
5344 1 12.219750 4.073250 199.589250
5345 1 14.935250 1.357750 199.589250
5346 1 14.935250 4.073250 196.873750
5347 1 10.862000 0.000000 200.947000
5348 1 10.862000 2.715500 203.662500
5349 1 13.577500 0.000000 203.662500
5350 1 13.577500 2.715500 200.947000
5351 1 12.219750 1.357750 202.304750
5352 1 12.219750 4.073250 205.020250
5353 1 14.935250 1.357750 205.020250
5354 1 14.935250 4.073250 202.304750
5355 1 10.862000 0.000000 206.378000
5356 1 10.862000 2.715500 209.093500
5357 1 13.577500 0.000000 209.093500
5358 1 13.577500 2.715500 206.378000
5359 1 12.219750 1.357750 207.735750
5360 1 12.219750 4.073250 210.451250
5361 1 14.935250 1.357750 210.451250
5362 1 14.935250 4.073250 207.735750
5363 1 10.862000 0.000000 211.809000
5364 1 10.862000 2.715500 214.524500
5365 1 13.577500 0.000000 214.524500
5366 1 13.577500 2.715500 211.809000
5367 1 12.219750 1.357750 213.166750
5368 1 12.219750 4.073250 215.882250
5369 1 14.935250 1.357750 215.882250
5370 1 14.935250 4.073250 213.166750
5371 1 10.862000 2.715500 241.679500
5372 1 13.577500 0.000000 241.679500
5373 1 12.219750 1.357750 240.321750
5374 1 12.219750 4.073250 243.037250
5375 1 14.935250 1.357750 243.037250
5376 1 14.935250 4.073250 240.321750
5377 1 10.862000 0.000000 244.395000
5378 1 10.862000 2.715500 247.110500
5379 1 13.577500 0.000000 247.110500
5380 1 13.577500 2.715500 244.395000
5381 1 12.219750 1.357750 245.752750
5382 1 12.219750 4.073250 248.468250
5383 1 14.935250 1.357750 248.468250
5384 1 14.935250 4.073250 245.752750
5385 1 10.862000 0.000000 249.826000
5386 1 10.862000 2.715500 252.541500
5387 1 13.577500 0.000000 252.541500
5388 1 13.577500 2.715500 249.826000
5389 1 12.219750 1.357750 251.183750
5390 1 12.219750 4.073250 253.899250
5391 1 14.935250 1.357750 253.899250
5392 1 14.935250 4.073250 251.183750
5393 1 10.862000 0.000000 255.257000
5394 1 10.862000 2.715500 257.972500
5395 1 13.577500 0.000000 257.972500
5396 1 13.577500 2.715500 255.257000
5397 1 12.219750 1.357750 256.614750
5398 1 12.219750 4.073250 259.330250
5399 1 14.935250 1.357750 259.330250
5400 1 14.935250 4.073250 256.614750
5401 1 10.862000 8.146500 24.439500
5402 1 13.577500 5.431000 24.439500
5403 1 12.219750 6.788750 23.081750
5404 1 12.219750 9.504250 25.797250
5405 1 14.935250 6.788750 25.797250
5406 1 14.935250 9.504250 23.081750
5407 1 10.862000 5.431000 27.155000
5408 1 10.862000 8.146500 29.870500
5409 1 13.577500 5.431000 29.870500
5410 1 13.577500 8.146500 27.155000
5411 1 12.219750 6.788750 28.512750
5412 1 12.219750 9.504250 31.228250
5413 1 14.935250 6.788750 31.228250
5414 1 14.935250 9.504250 28.512750
5415 1 10.862000 5.431000 32.586000
5416 1 10.862000 8.146500 35.301500
5417 1 13.577500 5.431000 35.301500
5418 1 13.577500 8.146500 32.586000
5419 1 12.219750 6.788750 33.943750
5420 1 12.219750 9.504250 36.659250
5421 1 14.935250 6.788750 36.659250
5422 1 14.935250 9.504250 33.943750
5423 1 10.862000 5.431000 38.017000
5424 1 10.862000 8.146500 40.732500
5425 1 13.577500 5.431000 40.732500
5426 1 13.577500 8.146500 38.017000
5427 1 12.219750 6.788750 39.374750
5428 1 12.219750 9.504250 42.090250
5429 1 14.935250 6.788750 42.090250
5430 1 14.935250 9.504250 39.374750
5431 1 10.862000 8.146500 67.887500
5432 1 13.577500 5.431000 67.887500
5433 1 12.219750 6.788750 66.529750
5434 1 12.219750 9.504250 69.245250
5435 1 14.935250 6.788750 69.245250
5436 1 14.935250 9.504250 66.529750
5437 1 10.862000 5.431000 70.603000
5438 1 10.862000 8.146500 73.318500
5439 1 13.577500 5.431000 73.318500
5440 1 13.577500 8.146500 70.603000
5441 1 12.219750 6.788750 71.960750
5442 1 12.219750 9.504250 74.676250
5443 1 14.935250 6.788750 74.676250
5444 1 14.935250 9.504250 71.960750
5445 1 10.862000 5.431000 76.034000
5446 1 10.862000 8.146500 78.749500
5447 1 13.577500 5.431000 78.749500
5448 1 13.577500 8.146500 76.034000
5449 1 12.219750 6.788750 77.391750
5450 1 12.219750 9.504250 80.107250
5451 1 14.935250 6.788750 80.107250
5452 1 14.935250 9.504250 77.391750
5453 1 10.862000 5.431000 81.465000
5454 1 10.862000 8.146500 84.180500
5455 1 13.577500 5.431000 84.180500
5456 1 13.577500 8.146500 81.465000
5457 1 12.219750 6.788750 82.822750
5458 1 12.219750 9.504250 85.538250
5459 1 14.935250 6.788750 85.538250
5460 1 14.935250 9.504250 82.822750
5461 1 10.862000 8.146500 111.335500
5462 1 13.577500 5.431000 111.335500
5463 1 12.219750 6.788750 109.977750
5464 1 12.219750 9.504250 112.693250
5465 1 14.935250 6.788750 112.693250
5466 1 14.935250 9.504250 109.977750
5467 1 10.862000 5.431000 114.051000
5468 1 10.862000 8.146500 116.766500
5469 1 13.577500 5.431000 116.766500
5470 1 13.577500 8.146500 114.051000
5471 1 12.219750 6.788750 115.408750
5472 1 12.219750 9.504250 118.124250
5473 1 14.935250 6.788750 118.124250
5474 1 14.935250 9.504250 115.408750
5475 1 10.862000 5.431000 119.482000
5476 1 10.862000 8.146500 122.197500
5477 1 13.577500 5.431000 122.197500
5478 1 13.577500 8.146500 119.482000
5479 1 12.219750 6.788750 120.839750
5480 1 12.219750 9.504250 123.555250
5481 1 14.935250 6.788750 123.555250
5482 1 14.935250 9.504250 120.839750
5483 1 10.862000 5.431000 124.913000
5484 1 10.862000 8.146500 127.628500
5485 1 13.577500 5.431000 127.628500
5486 1 13.577500 8.146500 124.913000
5487 1 12.219750 6.788750 126.270750
5488 1 12.219750 9.504250 128.986250
5489 1 14.935250 6.788750 128.986250
5490 1 14.935250 9.504250 126.270750
5491 1 10.862000 8.146500 154.783500
5492 1 13.577500 5.431000 154.783500
5493 1 12.219750 6.788750 153.425750
5494 1 12.219750 9.504250 156.141250
5495 1 14.935250 6.788750 156.141250
5496 1 14.935250 9.504250 153.425750
5497 1 10.862000 5.431000 157.499000
5498 1 10.862000 8.146500 160.214500
5499 1 13.577500 5.431000 160.214500
5500 1 13.577500 8.146500 157.499000
5501 1 12.219750 6.788750 158.856750
5502 1 12.219750 9.504250 161.572250
5503 1 14.935250 6.788750 161.572250
5504 1 14.935250 9.504250 158.856750
5505 1 10.862000 5.431000 162.930000
5506 1 10.862000 8.146500 165.645500
5507 1 13.577500 5.431000 165.645500
5508 1 13.577500 8.146500 162.930000
5509 1 12.219750 6.788750 164.287750
5510 1 12.219750 9.504250 167.003250
5511 1 14.935250 6.788750 167.003250
5512 1 14.935250 9.504250 164.287750
5513 1 10.862000 5.431000 168.361000
5514 1 10.862000 8.146500 171.076500
5515 1 13.577500 5.431000 171.076500
5516 1 13.577500 8.146500 168.361000
5517 1 12.219750 6.788750 169.718750
5518 1 12.219750 9.504250 172.434250
5519 1 14.935250 6.788750 172.434250
5520 1 14.935250 9.504250 169.718750
5521 1 10.862000 8.146500 198.231500
5522 1 13.577500 5.431000 198.231500
5523 1 12.219750 6.788750 196.873750
5524 1 12.219750 9.504250 199.589250
5525 1 14.935250 6.788750 199.589250
5526 1 14.935250 9.504250 196.873750
5527 1 10.862000 5.431000 200.947000
5528 1 10.862000 8.146500 203.662500
5529 1 13.577500 5.431000 203.662500
5530 1 13.577500 8.146500 200.947000
5531 1 12.219750 6.788750 202.304750
5532 1 12.219750 9.504250 205.020250
5533 1 14.935250 6.788750 205.020250
5534 1 14.935250 9.504250 202.304750
5535 1 10.862000 5.431000 206.378000
5536 1 10.862000 8.146500 209.093500
5537 1 13.577500 5.431000 209.093500
5538 1 13.577500 8.146500 206.378000
5539 1 12.219750 6.788750 207.735750
5540 1 12.219750 9.504250 210.451250
5541 1 14.935250 6.788750 210.451250
5542 1 14.935250 9.504250 207.735750
5543 1 10.862000 5.431000 211.809000
5544 1 10.862000 8.146500 214.524500
5545 1 13.577500 5.431000 214.524500
5546 1 13.577500 8.146500 211.809000
5547 1 12.219750 6.788750 213.166750
5548 1 12.219750 9.504250 215.882250
5549 1 14.935250 6.788750 215.882250
5550 1 14.935250 9.504250 213.166750
5551 1 10.862000 8.146500 241.679500
5552 1 13.577500 5.431000 241.679500
5553 1 12.219750 6.788750 240.321750
5554 1 12.219750 9.504250 243.037250
5555 1 14.935250 6.788750 243.037250
5556 1 14.935250 9.504250 240.321750
5557 1 10.862000 5.431000 244.395000
5558 1 10.862000 8.146500 247.110500
5559 1 13.577500 5.431000 247.110500
5560 1 13.577500 8.146500 244.395000
5561 1 12.219750 6.788750 245.752750
5562 1 12.219750 9.504250 248.468250
5563 1 14.935250 6.788750 248.468250
5564 1 14.935250 9.504250 245.752750
5565 1 10.862000 5.431000 249.826000
5566 1 10.862000 8.146500 252.541500
5567 1 13.577500 5.431000 252.541500
5568 1 13.577500 8.146500 249.826000
5569 1 12.219750 6.788750 251.183750
5570 1 12.219750 9.504250 253.899250
5571 1 14.935250 6.788750 253.899250
5572 1 14.935250 9.504250 251.183750
5573 1 10.862000 5.431000 255.257000
5574 1 10.862000 8.146500 257.972500
5575 1 13.577500 5.431000 257.972500
5576 1 13.577500 8.146500 255.257000
5577 1 12.219750 6.788750 256.614750
5578 1 12.219750 9.504250 259.330250
5579 1 14.935250 6.788750 259.330250
5580 1 14.935250 9.504250 256.614750
5581 1 10.862000 13.577500 2.715500
5582 1 13.577500 13.577500 0.000000
5583 1 12.219750 12.219750 1.357750
5584 1 12.219750 14.935250 4.073250
5585 1 14.935250 12.219750 4.073250
5586 1 14.935250 14.935250 1.357750
5587 1 10.862000 13.577500 8.146500
5588 1 13.577500 13.577500 5.431000
5589 1 12.219750 12.219750 6.788750
5590 1 12.219750 14.935250 9.504250
5591 1 14.935250 12.219750 9.504250
5592 1 14.935250 14.935250 6.788750
5593 1 10.862000 13.577500 13.577500
5594 1 13.577500 13.577500 10.862000
5595 1 12.219750 12.219750 12.219750
5596 1 12.219750 14.935250 14.935250
5597 1 14.935250 12.219750 14.935250
5598 1 14.935250 14.935250 12.219750
5599 1 10.862000 13.577500 19.008500
5600 1 13.577500 13.577500 16.293000
5601 1 12.219750 12.219750 17.650750
5602 1 12.219750 14.935250 20.366250
5603 1 14.935250 12.219750 20.366250
5604 1 14.935250 14.935250 17.650750
5605 1 10.862000 13.577500 24.439500
5606 1 13.577500 10.862000 24.439500
5607 1 13.577500 13.577500 21.724000
5608 1 12.219750 12.219750 23.081750
5609 1 12.219750 14.935250 25.797250
5610 1 14.935250 12.219750 25.797250
5611 1 14.935250 14.935250 23.081750
5612 1 10.862000 10.862000 27.155000
5613 1 10.862000 13.577500 29.870500
5614 1 13.577500 10.862000 29.870500
5615 1 13.577500 13.577500 27.155000
5616 1 12.219750 12.219750 28.512750
5617 1 12.219750 14.935250 31.228250
5618 1 14.935250 12.219750 31.228250
5619 1 14.935250 14.935250 28.512750
5620 1 10.862000 10.862000 32.586000
5621 1 10.862000 13.577500 35.301500
5622 1 13.577500 10.862000 35.301500
5623 1 13.577500 13.577500 32.586000
5624 1 12.219750 12.219750 33.943750
5625 1 12.219750 14.935250 36.659250
5626 1 14.935250 12.219750 36.659250
5627 1 14.935250 14.935250 33.943750
5628 1 10.862000 10.862000 38.017000
5629 1 10.862000 13.577500 40.732500
5630 1 13.577500 10.862000 40.732500
5631 1 13.577500 13.577500 38.017000
5632 1 12.219750 12.219750 39.374750
5633 1 12.219750 14.935250 42.090250
5634 1 14.935250 12.219750 42.090250
5635 1 14.935250 14.935250 39.374750
5636 1 10.862000 13.577500 46.163500
5637 1 13.577500 13.577500 43.448000
5638 1 12.219750 12.219750 44.805750
5639 1 12.219750 14.935250 47.521250
5640 1 14.935250 12.219750 47.521250
5641 1 14.935250 14.935250 44.805750
5642 1 10.862000 13.577500 51.594500
5643 1 13.577500 13.577500 48.879000
5644 1 12.219750 12.219750 50.236750
5645 1 12.219750 14.935250 52.952250
5646 1 14.935250 12.219750 52.952250
5647 1 14.935250 14.935250 50.236750
5648 1 10.862000 13.577500 57.025500
5649 1 13.577500 13.577500 54.310000
5650 1 12.219750 12.219750 55.667750
5651 1 12.219750 14.935250 58.383250
5652 1 14.935250 12.219750 58.383250
5653 1 14.935250 14.935250 55.667750
5654 1 10.862000 13.577500 62.456500
5655 1 13.577500 13.577500 59.741000
5656 1 12.219750 12.219750 61.098750
5657 1 12.219750 14.935250 63.814250
5658 1 14.935250 12.219750 63.814250
5659 1 14.935250 14.935250 61.098750
5660 1 10.862000 13.577500 67.887500
5661 1 13.577500 10.862000 67.887500
5662 1 13.577500 13.577500 65.172000
5663 1 12.219750 12.219750 66.529750
5664 1 12.219750 14.935250 69.245250
5665 1 14.935250 12.219750 69.245250
5666 1 14.935250 14.935250 66.529750
5667 1 10.862000 10.862000 70.603000
5668 1 10.862000 13.577500 73.318500
5669 1 13.577500 10.862000 73.318500
5670 1 13.577500 13.577500 70.603000
5671 1 12.219750 12.219750 71.960750
5672 1 12.219750 14.935250 74.676250
5673 1 14.935250 12.219750 74.676250
5674 1 14.935250 14.935250 71.960750
5675 1 10.862000 10.862000 76.034000
5676 1 10.862000 13.577500 78.749500
5677 1 13.577500 10.862000 78.749500
5678 1 13.577500 13.577500 76.034000
5679 1 12.219750 12.219750 77.391750
5680 1 12.219750 14.935250 80.107250
5681 1 14.935250 12.219750 80.107250
5682 1 14.935250 14.935250 77.391750
5683 1 10.862000 10.862000 81.465000
5684 1 10.862000 13.577500 84.180500
5685 1 13.577500 10.862000 84.180500
5686 1 13.577500 13.577500 81.465000
5687 1 12.219750 12.219750 82.822750
5688 1 12.219750 14.935250 85.538250
5689 1 14.935250 12.219750 85.538250
5690 1 14.935250 14.935250 82.822750
5691 1 10.862000 13.577500 89.611500
5692 1 13.577500 13.577500 86.896000
5693 1 12.219750 12.219750 88.253750
5694 1 12.219750 14.935250 90.969250
5695 1 14.935250 12.219750 90.969250
5696 1 14.935250 14.935250 88.253750
5697 1 10.862000 13.577500 95.042500
5698 1 13.577500 13.577500 92.327000
5699 1 12.219750 12.219750 93.684750
5700 1 12.219750 14.935250 96.400250
5701 1 14.935250 12.219750 96.400250
5702 1 14.935250 14.935250 93.684750
5703 1 10.862000 13.577500 100.473500
5704 1 13.577500 13.577500 97.758000
5705 1 12.219750 12.219750 99.115750
5706 1 12.219750 14.935250 101.831250
5707 1 14.935250 12.219750 101.831250
5708 1 14.935250 14.935250 99.115750
5709 1 10.862000 13.577500 105.904500
5710 1 13.577500 13.577500 103.189000
5711 1 12.219750 12.219750 104.546750
5712 1 12.219750 14.935250 107.262250
5713 1 14.935250 12.219750 107.262250
5714 1 14.935250 14.935250 104.546750
5715 1 10.862000 13.577500 111.335500
5716 1 13.577500 10.862000 111.335500
5717 1 13.577500 13.577500 108.620000
5718 1 12.219750 12.219750 109.977750
5719 1 12.219750 14.935250 112.693250
5720 1 14.935250 12.219750 112.693250
5721 1 14.935250 14.935250 109.977750
5722 1 10.862000 10.862000 114.051000
5723 1 10.862000 13.577500 116.766500
5724 1 13.577500 10.862000 116.766500
5725 1 13.577500 13.577500 114.051000
5726 1 12.219750 12.219750 115.408750
5727 1 12.219750 14.935250 118.124250
5728 1 14.935250 12.219750 118.124250
5729 1 14.935250 14.935250 115.408750
5730 1 10.862000 10.862000 119.482000
5731 1 10.862000 13.577500 122.197500
5732 1 13.577500 10.862000 122.197500
5733 1 13.577500 13.577500 119.482000
5734 1 12.219750 12.219750 120.839750
5735 1 12.219750 14.935250 123.555250
5736 1 14.935250 12.219750 123.555250
5737 1 14.935250 14.935250 120.839750
5738 1 10.862000 10.862000 124.913000
5739 1 10.862000 13.577500 127.628500
5740 1 13.577500 10.862000 127.628500
5741 1 13.577500 13.577500 124.913000
5742 1 12.219750 12.219750 126.270750
5743 1 12.219750 14.935250 128.986250
5744 1 14.935250 12.219750 128.986250
5745 1 14.935250 14.935250 126.270750
5746 1 10.862000 13.577500 133.059500
5747 1 13.577500 13.577500 130.344000
5748 1 12.219750 12.219750 131.701750
5749 1 12.219750 14.935250 134.417250
5750 1 14.935250 12.219750 134.417250
5751 1 14.935250 14.935250 131.701750
5752 1 10.862000 13.577500 138.490500
5753 1 13.577500 13.577500 135.775000
5754 1 12.219750 12.219750 137.132750
5755 1 12.219750 14.935250 139.848250
5756 1 14.935250 12.219750 139.848250
5757 1 14.935250 14.935250 137.132750
5758 1 10.862000 13.577500 143.921500
5759 1 13.577500 13.577500 141.206000
5760 1 12.219750 12.219750 142.563750
5761 1 12.219750 14.935250 145.279250
5762 1 14.935250 12.219750 145.279250
5763 1 14.935250 14.935250 142.563750
5764 1 10.862000 13.577500 149.352500
5765 1 13.577500 13.577500 146.637000
5766 1 12.219750 12.219750 147.994750
5767 1 12.219750 14.935250 150.710250
5768 1 14.935250 12.219750 150.710250
5769 1 14.935250 14.935250 147.994750
5770 1 10.862000 13.577500 154.783500
5771 1 13.577500 10.862000 154.783500
5772 1 13.577500 13.577500 152.068000
5773 1 12.219750 12.219750 153.425750
5774 1 12.219750 14.935250 156.141250
5775 1 14.935250 12.219750 156.141250
5776 1 14.935250 14.935250 153.425750
5777 1 10.862000 10.862000 157.499000
5778 1 10.862000 13.577500 160.214500
5779 1 13.577500 10.862000 160.214500
5780 1 13.577500 13.577500 157.499000
5781 1 12.219750 12.219750 158.856750
5782 1 12.219750 14.935250 161.572250
5783 1 14.935250 12.219750 161.572250
5784 1 14.935250 14.935250 158.856750
5785 1 10.862000 10.862000 162.930000
5786 1 10.862000 13.577500 165.645500
5787 1 13.577500 10.862000 165.645500
5788 1 13.577500 13.577500 162.930000
5789 1 12.219750 12.219750 164.287750
5790 1 12.219750 14.935250 167.003250
5791 1 14.935250 12.219750 167.003250
5792 1 14.935250 14.935250 164.287750
5793 1 10.862000 10.862000 168.361000
5794 1 10.862000 13.577500 171.076500
5795 1 13.577500 10.862000 171.076500
5796 1 13.577500 13.577500 168.361000
5797 1 12.219750 12.219750 169.718750
5798 1 12.219750 14.935250 172.434250
5799 1 14.935250 12.219750 172.434250
5800 1 14.935250 14.935250 169.718750
5801 1 10.862000 13.577500 176.507500
5802 1 13.577500 13.577500 173.792000
5803 1 12.219750 12.219750 175.149750
5804 1 12.219750 14.935250 177.865250
5805 1 14.935250 12.219750 177.865250
5806 1 14.935250 14.935250 175.149750
5807 1 10.862000 13.577500 181.938500
5808 1 13.577500 13.577500 179.223000
5809 1 12.219750 12.219750 180.580750
5810 1 12.219750 14.935250 183.296250
5811 1 14.935250 12.219750 183.296250
5812 1 14.935250 14.935250 180.580750
5813 1 10.862000 13.577500 187.369500
5814 1 13.577500 13.577500 184.654000
5815 1 12.219750 12.219750 186.011750
5816 1 12.219750 14.935250 188.727250
5817 1 14.935250 12.219750 188.727250
5818 1 14.935250 14.935250 186.011750
5819 1 10.862000 13.577500 192.800500
5820 1 13.577500 13.577500 190.085000
5821 1 12.219750 12.219750 191.442750
5822 1 12.219750 14.935250 194.158250
5823 1 14.935250 12.219750 194.158250
5824 1 14.935250 14.935250 191.442750
5825 1 10.862000 13.577500 198.231500
5826 1 13.577500 10.862000 198.231500
5827 1 13.577500 13.577500 195.516000
5828 1 12.219750 12.219750 196.873750
5829 1 12.219750 14.935250 199.589250
5830 1 14.935250 12.219750 199.589250
5831 1 14.935250 14.935250 196.873750
5832 1 10.862000 10.862000 200.947000
5833 1 10.862000 13.577500 203.662500
5834 1 13.577500 10.862000 203.662500
5835 1 13.577500 13.577500 200.947000
5836 1 12.219750 12.219750 202.304750
5837 1 12.219750 14.935250 205.020250
5838 1 14.935250 12.219750 205.020250
5839 1 14.935250 14.935250 202.304750
5840 1 10.862000 10.862000 206.378000
5841 1 10.862000 13.577500 209.093500
5842 1 13.577500 10.862000 209.093500
5843 1 13.577500 13.577500 206.378000
5844 1 12.219750 12.219750 207.735750
5845 1 12.219750 14.935250 210.451250
5846 1 14.935250 12.219750 210.451250
5847 1 14.935250 14.935250 207.735750
5848 1 10.862000 10.862000 211.809000
5849 1 10.862000 13.577500 214.524500
5850 1 13.577500 10.862000 214.524500
5851 1 13.577500 13.577500 211.809000
5852 1 12.219750 12.219750 213.166750
5853 1 12.219750 14.935250 215.882250
5854 1 14.935250 12.219750 215.882250
5855 1 14.935250 14.935250 213.166750
5856 1 10.862000 13.577500 219.955500
5857 1 13.577500 13.577500 217.240000
5858 1 12.219750 12.219750 218.597750
5859 1 12.219750 14.935250 221.313250
5860 1 14.935250 12.219750 221.313250
5861 1 14.935250 14.935250 218.597750
5862 1 10.862000 13.577500 225.386500
5863 1 13.577500 13.577500 222.671000
5864 1 12.219750 12.219750 224.028750
5865 1 12.219750 14.935250 226.744250
5866 1 14.935250 12.219750 226.744250
5867 1 14.935250 14.935250 224.028750
5868 1 10.862000 13.577500 230.817500
5869 1 13.577500 13.577500 228.102000
5870 1 12.219750 12.219750 229.459750
5871 1 12.219750 14.935250 232.175250
5872 1 14.935250 12.219750 232.175250
5873 1 14.935250 14.935250 229.459750
5874 1 10.862000 13.577500 236.248500
5875 1 13.577500 13.577500 233.533000
5876 1 12.219750 12.219750 234.890750
5877 1 12.219750 14.935250 237.606250
5878 1 14.935250 12.219750 237.606250
5879 1 14.935250 14.935250 234.890750
5880 1 10.862000 13.577500 241.679500
5881 1 13.577500 10.862000 241.679500
5882 1 13.577500 13.577500 238.964000
5883 1 12.219750 12.219750 240.321750
5884 1 12.219750 14.935250 243.037250
5885 1 14.935250 12.219750 243.037250
5886 1 14.935250 14.935250 240.321750
5887 1 10.862000 10.862000 244.395000
5888 1 10.862000 13.577500 247.110500
5889 1 13.577500 10.862000 247.110500
5890 1 13.577500 13.577500 244.395000
5891 1 12.219750 12.219750 245.752750
5892 1 12.219750 14.935250 248.468250
5893 1 14.935250 12.219750 248.468250
5894 1 14.935250 14.935250 245.752750
5895 1 10.862000 10.862000 249.826000
5896 1 10.862000 13.577500 252.541500
5897 1 13.577500 10.862000 252.541500
5898 1 13.577500 13.577500 249.826000
5899 1 12.219750 12.219750 251.183750
5900 1 12.219750 14.935250 253.899250
5901 1 14.935250 12.219750 253.899250
5902 1 14.935250 14.935250 251.183750
5903 1 10.862000 10.862000 255.257000
5904 1 10.862000 13.577500 257.972500
5905 1 13.577500 10.862000 257.972500
5906 1 13.577500 13.577500 255.257000
5907 1 12.219750 12.219750 256.614750
5908 1 12.219750 14.935250 259.330250
5909 1 14.935250 12.219750 259.330250
5910 1 14.935250 14.935250 256.614750
5911 1 10.862000 16.293000 0.000000
5912 1 10.862000 19.008500 2.715500
5913 1 13.577500 16.293000 2.715500
5914 1 13.577500 19.008500 0.000000
5915 1 12.219750 17.650750 1.357750
5916 1 12.219750 20.366250 4.073250
5917 1 14.935250 17.650750 4.073250
5918 1 14.935250 20.366250 1.357750
5919 1 10.862000 16.293000 5.431000
5920 1 10.862000 19.008500 8.146500
5921 1 13.577500 16.293000 8.146500
5922 1 13.577500 19.008500 5.431000
5923 1 12.219750 17.650750 6.788750
5924 1 12.219750 20.366250 9.504250
5925 1 14.935250 17.650750 9.504250
5926 1 14.935250 20.366250 6.788750
5927 1 10.862000 16.293000 10.862000
5928 1 10.862000 19.008500 13.577500
5929 1 13.577500 16.293000 13.577500
5930 1 13.577500 19.008500 10.862000
5931 1 12.219750 17.650750 12.219750
5932 1 12.219750 20.366250 14.935250
5933 1 14.935250 17.650750 14.935250
5934 1 14.935250 20.366250 12.219750
5935 1 10.862000 16.293000 16.293000
5936 1 10.862000 19.008500 19.008500
5937 1 13.577500 16.293000 19.008500
5938 1 13.577500 19.008500 16.293000
5939 1 12.219750 17.650750 17.650750
5940 1 12.219750 20.366250 20.366250
5941 1 14.935250 17.650750 20.366250
5942 1 14.935250 20.366250 17.650750
5943 1 10.862000 16.293000 21.724000
5944 1 10.862000 19.008500 24.439500
5945 1 13.577500 16.293000 24.439500
5946 1 13.577500 19.008500 21.724000
5947 1 12.219750 17.650750 23.081750
5948 1 12.219750 20.366250 25.797250
5949 1 14.935250 17.650750 25.797250
5950 1 14.935250 20.366250 23.081750
5951 1 10.862000 16.293000 27.155000
5952 1 10.862000 19.008500 29.870500
5953 1 13.577500 16.293000 29.870500
5954 1 13.577500 19.008500 27.155000
5955 1 12.219750 17.650750 28.512750
5956 1 12.219750 20.366250 31.228250
5957 1 14.935250 17.650750 31.228250
5958 1 14.935250 20.366250 28.512750
5959 1 10.862000 16.293000 32.586000
5960 1 10.862000 19.008500 35.301500
5961 1 13.577500 16.293000 35.301500
5962 1 13.577500 19.008500 32.586000
5963 1 12.219750 17.650750 33.943750
5964 1 12.219750 20.366250 36.659250
5965 1 14.935250 17.650750 36.659250
5966 1 14.935250 20.366250 33.943750
5967 1 10.862000 16.293000 38.017000
5968 1 10.862000 19.008500 40.732500
5969 1 13.577500 16.293000 40.732500
5970 1 13.577500 19.008500 38.017000
5971 1 12.219750 17.650750 39.374750
5972 1 12.219750 20.366250 42.090250
5973 1 14.935250 17.650750 42.090250
5974 1 14.935250 20.366250 39.374750
5975 1 10.862000 16.293000 43.448000
5976 1 10.862000 19.008500 46.163500
5977 1 13.577500 16.293000 46.163500
5978 1 13.577500 19.008500 43.448000
5979 1 12.219750 17.650750 44.805750
5980 1 12.219750 20.366250 47.521250
5981 1 14.935250 17.650750 47.521250
5982 1 14.935250 20.366250 44.805750
5983 1 10.862000 16.293000 48.879000
5984 1 10.862000 19.008500 51.594500
5985 1 13.577500 16.293000 51.594500
5986 1 13.577500 19.008500 48.879000
5987 1 12.219750 17.650750 50.236750
5988 1 12.219750 20.366250 52.952250
5989 1 14.935250 17.650750 52.952250
5990 1 14.935250 20.366250 50.236750
5991 1 10.862000 16.293000 54.310000
5992 1 10.862000 19.008500 57.025500
5993 1 13.577500 16.293000 57.025500
5994 1 13.577500 19.008500 54.310000
5995 1 12.219750 17.650750 55.667750
5996 1 12.219750 20.366250 58.383250
5997 1 14.935250 17.650750 58.383250
5998 1 14.935250 20.366250 55.667750
5999 1 10.862000 16.293000 59.741000
6000 1 10.862000 19.008500 62.456500
6001 1 13.577500 16.293000 62.456500
6002 1 13.577500 19.008500 59.741000
6003 1 12.219750 17.650750 61.098750
6004 1 12.219750 20.366250 63.814250
6005 1 14.935250 17.650750 63.814250
6006 1 14.935250 20.366250 61.098750
6007 1 10.862000 16.293000 65.172000
6008 1 10.862000 19.008500 67.887500
6009 1 13.577500 16.293000 67.887500
6010 1 13.577500 19.008500 65.172000
6011 1 12.219750 17.650750 66.529750
6012 1 12.219750 20.366250 69.245250
6013 1 14.935250 17.650750 69.245250
6014 1 14.935250 20.366250 66.529750
6015 1 10.862000 16.293000 70.603000
6016 1 10.862000 19.008500 73.318500
6017 1 13.577500 16.293000 73.318500
6018 1 13.577500 19.008500 70.603000
6019 1 12.219750 17.650750 71.960750
6020 1 12.219750 20.366250 74.676250
6021 1 14.935250 17.650750 74.676250
6022 1 14.935250 20.366250 71.960750
6023 1 10.862000 16.293000 76.034000
6024 1 10.862000 19.008500 78.749500
6025 1 13.577500 16.293000 78.749500
6026 1 13.577500 19.008500 76.034000
6027 1 12.219750 17.650750 77.391750
6028 1 12.219750 20.366250 80.107250
6029 1 14.935250 17.650750 80.107250
6030 1 14.935250 20.366250 77.391750
6031 1 10.862000 16.293000 81.465000
6032 1 10.862000 19.008500 84.180500
6033 1 13.577500 16.293000 84.180500
6034 1 13.577500 19.008500 81.465000
6035 1 12.219750 17.650750 82.822750
6036 1 12.219750 20.366250 85.538250
6037 1 14.935250 17.650750 85.538250
6038 1 14.935250 20.366250 82.822750
6039 1 10.862000 16.293000 86.896000
6040 1 10.862000 19.008500 89.611500
6041 1 13.577500 16.293000 89.611500
6042 1 13.577500 19.008500 86.896000
6043 1 12.219750 17.650750 88.253750
6044 1 12.219750 20.366250 90.969250
6045 1 14.935250 17.650750 90.969250
6046 1 14.935250 20.366250 88.253750
6047 1 10.862000 16.293000 92.327000
6048 1 10.862000 19.008500 95.042500
6049 1 13.577500 16.293000 95.042500
6050 1 13.577500 19.008500 92.327000
6051 1 12.219750 17.650750 93.684750
6052 1 12.219750 20.366250 96.400250
6053 1 14.935250 17.650750 96.400250
6054 1 14.935250 20.366250 93.684750
6055 1 10.862000 16.293000 97.758000
6056 1 10.862000 19.008500 100.473500
6057 1 13.577500 16.293000 100.473500
6058 1 13.577500 19.008500 97.758000
6059 1 12.219750 17.650750 99.115750
6060 1 12.219750 20.366250 101.831250
6061 1 14.935250 17.650750 101.831250
6062 1 14.935250 20.366250 99.115750
6063 1 10.862000 16.293000 103.189000
6064 1 10.862000 19.008500 105.904500
6065 1 13.577500 16.293000 105.904500
6066 1 13.577500 19.008500 103.189000
6067 1 12.219750 17.650750 104.546750
6068 1 12.219750 20.366250 107.262250
6069 1 14.935250 17.650750 107.262250
6070 1 14.935250 20.366250 104.546750
6071 1 10.862000 16.293000 108.620000
6072 1 10.862000 19.008500 111.335500
6073 1 13.577500 16.293000 111.335500
6074 1 13.577500 19.008500 108.620000
6075 1 12.219750 17.650750 109.977750
6076 1 12.219750 20.366250 112.693250
6077 1 14.935250 17.650750 112.693250
6078 1 14.935250 20.366250 109.977750
6079 1 10.862000 16.293000 114.051000
6080 1 10.862000 19.008500 116.766500
6081 1 13.577500 16.293000 116.766500
6082 1 13.577500 19.008500 114.051000
6083 1 12.219750 17.650750 115.408750
6084 1 12.219750 20.366250 118.124250
6085 1 14.935250 17.650750 118.124250
6086 1 14.935250 20.366250 115.408750
6087 1 10.862000 16.293000 119.482000
6088 1 10.862000 19.008500 122.197500
6089 1 13.577500 16.293000 122.197500
6090 1 13.577500 19.008500 119.482000
6091 1 12.219750 17.650750 120.839750
6092 1 12.219750 20.366250 123.555250
6093 1 14.935250 17.650750 123.555250
6094 1 14.935250 20.366250 120.839750
6095 1 10.862000 16.293000 124.913000
6096 1 10.862000 19.008500 127.628500
6097 1 13.577500 16.293000 127.628500
6098 1 13.577500 19.008500 124.913000
6099 1 12.219750 17.650750 126.270750
6100 1 12.219750 20.366250 128.986250
6101 1 14.935250 17.650750 128.986250
6102 1 14.935250 20.366250 126.270750
6103 1 10.862000 16.293000 130.344000
6104 1 10.862000 19.008500 133.059500
6105 1 13.577500 16.293000 133.059500
6106 1 13.577500 19.008500 130.344000
6107 1 12.219750 17.650750 131.701750
6108 1 12.219750 20.366250 134.417250
6109 1 14.935250 17.650750 134.417250
6110 1 14.935250 20.366250 131.701750
6111 1 10.862000 16.293000 135.775000
6112 1 10.862000 19.008500 138.490500
6113 1 13.577500 16.293000 138.490500
6114 1 13.577500 19.008500 135.775000
6115 1 12.219750 17.650750 137.132750
6116 1 12.219750 20.366250 139.848250
6117 1 14.935250 17.650750 139.848250
6118 1 14.935250 20.366250 137.132750
6119 1 10.862000 16.293000 141.206000
6120 1 10.862000 19.008500 143.921500
6121 1 13.577500 16.293000 143.921500
6122 1 13.577500 19.008500 141.206000
6123 1 12.219750 17.650750 142.563750
6124 1 12.219750 20.366250 145.279250
6125 1 14.935250 17.650750 145.279250
6126 1 14.935250 20.366250 142.563750
6127 1 10.862000 16.293000 146.637000
6128 1 10.862000 19.008500 149.352500
6129 1 13.577500 16.293000 149.352500
6130 1 13.577500 19.008500 146.637000
6131 1 12.219750 17.650750 147.994750
6132 1 12.219750 20.366250 150.710250
6133 1 14.935250 17.650750 150.710250
6134 1 14.935250 20.366250 147.994750
6135 1 10.862000 16.293000 152.068000
6136 1 10.862000 19.008500 154.783500
6137 1 13.577500 16.293000 154.783500
6138 1 13.577500 19.008500 152.068000
6139 1 12.219750 17.650750 153.425750
6140 1 12.219750 20.366250 156.141250
6141 1 14.935250 17.650750 156.141250
6142 1 14.935250 20.366250 153.425750
6143 1 10.862000 16.293000 157.499000
6144 1 10.862000 19.008500 160.214500
6145 1 13.577500 16.293000 160.214500
6146 1 13.577500 19.008500 157.499000
6147 1 12.219750 17.650750 158.856750
6148 1 12.219750 20.366250 161.572250
6149 1 14.935250 17.650750 161.572250
6150 1 14.935250 20.366250 158.856750
6151 1 10.862000 16.293000 162.930000
6152 1 10.862000 19.008500 165.645500
6153 1 13.577500 16.293000 165.645500
6154 1 13.577500 19.008500 162.930000
6155 1 12.219750 17.650750 164.287750
6156 1 12.219750 20.366250 167.003250
6157 1 14.935250 17.650750 167.003250
6158 1 14.935250 20.366250 164.287750
6159 1 10.862000 16.293000 168.361000
6160 1 10.862000 19.008500 171.076500
6161 1 13.577500 16.293000 171.076500
6162 1 13.577500 19.008500 168.361000
6163 1 12.219750 17.650750 169.718750
6164 1 12.219750 20.366250 172.434250
6165 1 14.935250 17.650750 172.434250
6166 1 14.935250 20.366250 169.718750
6167 1 10.862000 16.293000 173.792000
6168 1 10.862000 19.008500 176.507500
6169 1 13.577500 16.293000 176.507500
6170 1 13.577500 19.008500 173.792000
6171 1 12.219750 17.650750 175.149750
6172 1 12.219750 20.366250 177.865250
6173 1 14.935250 17.650750 177.865250
6174 1 14.935250 20.366250 175.149750
6175 1 10.862000 16.293000 179.223000
6176 1 10.862000 19.008500 181.938500
6177 1 13.577500 16.293000 181.938500
6178 1 13.577500 19.008500 179.223000
6179 1 12.219750 17.650750 180.580750
6180 1 12.219750 20.366250 183.296250
6181 1 14.935250 17.650750 183.296250
6182 1 14.935250 20.366250 180.580750
6183 1 10.862000 16.293000 184.654000
6184 1 10.862000 19.008500 187.369500
6185 1 13.577500 16.293000 187.369500
6186 1 13.577500 19.008500 184.654000
6187 1 12.219750 17.650750 186.011750
6188 1 12.219750 20.366250 188.727250
6189 1 14.935250 17.650750 188.727250
6190 1 14.935250 20.366250 186.011750
6191 1 10.862000 16.293000 190.085000
6192 1 10.862000 19.008500 192.800500
6193 1 13.577500 16.293000 192.800500
6194 1 13.577500 19.008500 190.085000
6195 1 12.219750 17.650750 191.442750
6196 1 12.219750 20.366250 194.158250
6197 1 14.935250 17.650750 194.158250
6198 1 14.935250 20.366250 191.442750
6199 1 10.862000 16.293000 195.516000
6200 1 10.862000 19.008500 198.231500
6201 1 13.577500 16.293000 198.231500
6202 1 13.577500 19.008500 195.516000
6203 1 12.219750 17.650750 196.873750
6204 1 12.219750 20.366250 199.589250
6205 1 14.935250 17.650750 199.589250
6206 1 14.935250 20.366250 196.873750
6207 1 10.862000 16.293000 200.947000
6208 1 10.862000 19.008500 203.662500
6209 1 13.577500 16.293000 203.662500
6210 1 13.577500 19.008500 200.947000
6211 1 12.219750 17.650750 202.304750
6212 1 12.219750 20.366250 205.020250
6213 1 14.935250 17.650750 205.020250
6214 1 14.935250 20.366250 202.304750
6215 1 10.862000 16.293000 206.378000
6216 1 10.862000 19.008500 209.093500
6217 1 13.577500 16.293000 209.093500
6218 1 13.577500 19.008500 206.378000
6219 1 12.219750 17.650750 207.735750
6220 1 12.219750 20.366250 210.451250
6221 1 14.935250 17.650750 210.451250
6222 1 14.935250 20.366250 207.735750
6223 1 10.862000 16.293000 211.809000
6224 1 10.862000 19.008500 214.524500
6225 1 13.577500 16.293000 214.524500
6226 1 13.577500 19.008500 211.809000
6227 1 12.219750 17.650750 213.166750
6228 1 12.219750 20.366250 215.882250
6229 1 14.935250 17.650750 215.882250
6230 1 14.935250 20.366250 213.166750
6231 1 10.862000 16.293000 217.240000
6232 1 10.862000 19.008500 219.955500
6233 1 13.577500 16.293000 219.955500
6234 1 13.577500 19.008500 217.240000
6235 1 12.219750 17.650750 218.597750
6236 1 12.219750 20.366250 221.313250
6237 1 14.935250 17.650750 221.313250
6238 1 14.935250 20.366250 218.597750
6239 1 10.862000 16.293000 222.671000
6240 1 10.862000 19.008500 225.386500
6241 1 13.577500 16.293000 225.386500
6242 1 13.577500 19.008500 222.671000
6243 1 12.219750 17.650750 224.028750
6244 1 12.219750 20.366250 226.744250
6245 1 14.935250 17.650750 226.744250
6246 1 14.935250 20.366250 224.028750
6247 1 10.862000 16.293000 228.102000
6248 1 10.862000 19.008500 230.817500
6249 1 13.577500 16.293000 230.817500
6250 1 13.577500 19.008500 228.102000
6251 1 12.219750 17.650750 229.459750
6252 1 12.219750 20.366250 232.175250
6253 1 14.935250 17.650750 232.175250
6254 1 14.935250 20.366250 229.459750
6255 1 10.862000 16.293000 233.533000
6256 1 10.862000 19.008500 236.248500
6257 1 13.577500 16.293000 236.248500
6258 1 13.577500 19.008500 233.533000
6259 1 12.219750 17.650750 234.890750
6260 1 12.219750 20.366250 237.606250
6261 1 14.935250 17.650750 237.606250
6262 1 14.935250 20.366250 234.890750
6263 1 10.862000 16.293000 238.964000
6264 1 10.862000 19.008500 241.679500
6265 1 13.577500 16.293000 241.679500
6266 1 13.577500 19.008500 238.964000
6267 1 12.219750 17.650750 240.321750
6268 1 12.219750 20.366250 243.037250
6269 1 14.935250 17.650750 243.037250
6270 1 14.935250 20.366250 240.321750
6271 1 10.862000 16.293000 244.395000
6272 1 10.862000 19.008500 247.110500
6273 1 13.577500 16.293000 247.110500
6274 1 13.577500 19.008500 244.395000
6275 1 12.219750 17.650750 245.752750
6276 1 12.219750 20.366250 248.468250
6277 1 14.935250 17.650750 248.468250
6278 1 14.935250 20.366250 245.752750
6279 1 10.862000 16.293000 249.826000
6280 1 10.862000 19.008500 252.541500
6281 1 13.577500 16.293000 252.541500
6282 1 13.577500 19.008500 249.826000
6283 1 12.219750 17.650750 251.183750
6284 1 12.219750 20.366250 253.899250
6285 1 14.935250 17.650750 253.899250
6286 1 14.935250 20.366250 251.183750
6287 1 10.862000 16.293000 255.257000
6288 1 10.862000 19.008500 257.972500
6289 1 13.577500 16.293000 257.972500
6290 1 13.577500 19.008500 255.257000
6291 1 12.219750 17.650750 256.614750
6292 1 12.219750 20.366250 259.330250
6293 1 14.935250 17.650750 259.330250
6294 1 14.935250 20.366250 256.614750
6295 1 10.862000 21.724000 0.000000
6296 1 10.862000 24.439500 2.715500
6297 1 13.577500 21.724000 2.715500
6298 1 13.577500 24.439500 0.000000
6299 1 12.219750 23.081750 1.357750
6300 1 12.219750 25.797250 4.073250
6301 1 14.935250 23.081750 4.073250
6302 1 14.935250 25.797250 1.357750
6303 1 10.862000 21.724000 5.431000
6304 1 10.862000 24.439500 8.146500
6305 1 13.577500 21.724000 8.146500
6306 1 13.577500 24.439500 5.431000
6307 1 12.219750 23.081750 6.788750
6308 1 12.219750 25.797250 9.504250
6309 1 14.935250 23.081750 9.504250
6310 1 14.935250 25.797250 6.788750
6311 1 10.862000 21.724000 10.862000
6312 1 10.862000 24.439500 13.577500
6313 1 13.577500 21.724000 13.577500
6314 1 13.577500 24.439500 10.862000
6315 1 12.219750 23.081750 12.219750
6316 1 12.219750 25.797250 14.935250
6317 1 14.935250 23.081750 14.935250
6318 1 14.935250 25.797250 12.219750
6319 1 10.862000 21.724000 16.293000
6320 1 10.862000 24.439500 19.008500
6321 1 13.577500 21.724000 19.008500
6322 1 13.577500 24.439500 16.293000
6323 1 12.219750 23.081750 17.650750
6324 1 12.219750 25.797250 20.366250
6325 1 14.935250 23.081750 20.366250
6326 1 14.935250 25.797250 17.650750
6327 1 10.862000 21.724000 21.724000
6328 1 10.862000 24.439500 24.439500
6329 1 13.577500 21.724000 24.439500
6330 1 13.577500 24.439500 21.724000
6331 1 12.219750 23.081750 23.081750
6332 1 12.219750 25.797250 25.797250
6333 1 14.935250 23.081750 25.797250
6334 1 14.935250 25.797250 23.081750
6335 1 10.862000 21.724000 27.155000
6336 1 10.862000 24.439500 29.870500
6337 1 13.577500 21.724000 29.870500
6338 1 13.577500 24.439500 27.155000
6339 1 12.219750 23.081750 28.512750
6340 1 12.219750 25.797250 31.228250
6341 1 14.935250 23.081750 31.228250
6342 1 14.935250 25.797250 28.512750
6343 1 10.862000 21.724000 32.586000
6344 1 10.862000 24.439500 35.301500
6345 1 13.577500 21.724000 35.301500
6346 1 13.577500 24.439500 32.586000
6347 1 12.219750 23.081750 33.943750
6348 1 12.219750 25.797250 36.659250
6349 1 14.935250 23.081750 36.659250
6350 1 14.935250 25.797250 33.943750
6351 1 10.862000 21.724000 38.017000
6352 1 10.862000 24.439500 40.732500
6353 1 13.577500 21.724000 40.732500
6354 1 13.577500 24.439500 38.017000
6355 1 12.219750 23.081750 39.374750
6356 1 12.219750 25.797250 42.090250
6357 1 14.935250 23.081750 42.090250
6358 1 14.935250 25.797250 39.374750
6359 1 10.862000 21.724000 43.448000
6360 1 10.862000 24.439500 46.163500
6361 1 13.577500 21.724000 46.163500
6362 1 13.577500 24.439500 43.448000
6363 1 12.219750 23.081750 44.805750
6364 1 12.219750 25.797250 47.521250
6365 1 14.935250 23.081750 47.521250
6366 1 14.935250 25.797250 44.805750
6367 1 10.862000 21.724000 48.879000
6368 1 10.862000 24.439500 51.594500
6369 1 13.577500 21.724000 51.594500
6370 1 13.577500 24.439500 48.879000
6371 1 12.219750 23.081750 50.236750
6372 1 12.219750 25.797250 52.952250
6373 1 14.935250 23.081750 52.952250
6374 1 14.935250 25.797250 50.236750
6375 1 10.862000 21.724000 54.310000
6376 1 10.862000 24.439500 57.025500
6377 1 13.577500 21.724000 57.025500
6378 1 13.577500 24.439500 54.310000
6379 1 12.219750 23.081750 55.667750
6380 1 12.219750 25.797250 58.383250
6381 1 14.935250 23.081750 58.383250
6382 1 14.935250 25.797250 55.667750
6383 1 10.862000 21.724000 59.741000
6384 1 10.862000 24.439500 62.456500
6385 1 13.577500 21.724000 62.456500
6386 1 13.577500 24.439500 59.741000
6387 1 12.219750 23.081750 61.098750
6388 1 12.219750 25.797250 63.814250
6389 1 14.935250 23.081750 63.814250
6390 1 14.935250 25.797250 61.098750
6391 1 10.862000 21.724000 65.172000
6392 1 10.862000 24.439500 67.887500
6393 1 13.577500 21.724000 67.887500
6394 1 13.577500 24.439500 65.172000
6395 1 12.219750 23.081750 66.529750
6396 1 12.219750 25.797250 69.245250
6397 1 14.935250 23.081750 69.245250
6398 1 14.935250 25.797250 66.529750
6399 1 10.862000 21.724000 70.603000
6400 1 10.862000 24.439500 73.318500
6401 1 13.577500 21.724000 73.318500
6402 1 13.577500 24.439500 70.603000
6403 1 12.219750 23.081750 71.960750
6404 1 12.219750 25.797250 74.676250
6405 1 14.935250 23.081750 74.676250
6406 1 14.935250 25.797250 71.960750
6407 1 10.862000 21.724000 76.034000
6408 1 10.862000 24.439500 78.749500
6409 1 13.577500 21.724000 78.749500
6410 1 13.577500 24.439500 76.034000
6411 1 12.219750 23.081750 77.391750
6412 1 12.219750 25.797250 80.107250
6413 1 14.935250 23.081750 80.107250
6414 1 14.935250 25.797250 77.391750
6415 1 10.862000 21.724000 81.465000
6416 1 10.862000 24.439500 84.180500
6417 1 13.577500 21.724000 84.180500
6418 1 13.577500 24.439500 81.465000
6419 1 12.219750 23.081750 82.822750
6420 1 12.219750 25.797250 85.538250
6421 1 14.935250 23.081750 85.538250
6422 1 14.935250 25.797250 82.822750
6423 1 10.862000 21.724000 86.896000
6424 1 10.862000 24.439500 89.611500
6425 1 13.577500 21.724000 89.611500
6426 1 13.577500 24.439500 86.896000
6427 1 12.219750 23.081750 88.253750
6428 1 12.219750 25.797250 90.969250
6429 1 14.935250 23.081750 90.969250
6430 1 14.935250 25.797250 88.253750
6431 1 10.862000 21.724000 92.327000
6432 1 10.862000 24.439500 95.042500
6433 1 13.577500 21.724000 95.042500
6434 1 13.577500 24.439500 92.327000
6435 1 12.219750 23.081750 93.684750
6436 1 12.219750 25.797250 96.400250
6437 1 14.935250 23.081750 96.400250
6438 1 14.935250 25.797250 93.684750
6439 1 10.862000 21.724000 97.758000
6440 1 10.862000 24.439500 100.473500
6441 1 13.577500 21.724000 100.473500
6442 1 13.577500 24.439500 97.758000
6443 1 12.219750 23.081750 99.115750
6444 1 12.219750 25.797250 101.831250
6445 1 14.935250 23.081750 101.831250
6446 1 14.935250 25.797250 99.115750
6447 1 10.862000 21.724000 103.189000
6448 1 10.862000 24.439500 105.904500
6449 1 13.577500 21.724000 105.904500
6450 1 13.577500 24.439500 103.189000
6451 1 12.219750 23.081750 104.546750
6452 1 12.219750 25.797250 107.262250
6453 1 14.935250 23.081750 107.262250
6454 1 14.935250 25.797250 104.546750
6455 1 10.862000 21.724000 108.620000
6456 1 10.862000 24.439500 111.335500
6457 1 13.577500 21.724000 111.335500
6458 1 13.577500 24.439500 108.620000
6459 1 12.219750 23.081750 109.977750
6460 1 12.219750 25.797250 112.693250
6461 1 14.935250 23.081750 112.693250
6462 1 14.935250 25.797250 109.977750
6463 1 10.862000 21.724000 114.051000
6464 1 10.862000 24.439500 116.766500
6465 1 13.577500 21.724000 116.766500
6466 1 13.577500 24.439500 114.051000
6467 1 12.219750 23.081750 115.408750
6468 1 12.219750 25.797250 118.124250
6469 1 14.935250 23.081750 118.124250
6470 1 14.935250 25.797250 115.408750
6471 1 10.862000 21.724000 119.482000
6472 1 10.862000 24.439500 122.197500
6473 1 13.577500 21.724000 122.197500
6474 1 13.577500 24.439500 119.482000
6475 1 12.219750 23.081750 120.839750
6476 1 12.219750 25.797250 123.555250
6477 1 14.935250 23.081750 123.555250
6478 1 14.935250 25.797250 120.839750
6479 1 10.862000 21.724000 124.913000
6480 1 10.862000 24.439500 127.628500
6481 1 13.577500 21.724000 127.628500
6482 1 13.577500 24.439500 124.913000
6483 1 12.219750 23.081750 126.270750
6484 1 12.219750 25.797250 128.986250
6485 1 14.935250 23.081750 128.986250
6486 1 14.935250 25.797250 126.270750
6487 1 10.862000 21.724000 130.344000
6488 1 10.862000 24.439500 133.059500
6489 1 13.577500 21.724000 133.059500
6490 1 13.577500 24.439500 130.344000
6491 1 12.219750 23.081750 131.701750
6492 1 12.219750 25.797250 134.417250
6493 1 14.935250 23.081750 134.417250
6494 1 14.935250 25.797250 131.701750
6495 1 10.862000 21.724000 135.775000
6496 1 10.862000 24.439500 138.490500
6497 1 13.577500 21.724000 138.490500
6498 1 13.577500 24.439500 135.775000
6499 1 12.219750 23.081750 137.132750
6500 1 12.219750 25.797250 139.848250
6501 1 14.935250 23.081750 139.848250
6502 1 14.935250 25.797250 137.132750
6503 1 10.862000 21.724000 141.206000
6504 1 10.862000 24.439500 143.921500
6505 1 13.577500 21.724000 143.921500
6506 1 13.577500 24.439500 141.206000
6507 1 12.219750 23.081750 142.563750
6508 1 12.219750 25.797250 145.279250
6509 1 14.935250 23.081750 145.279250
6510 1 14.935250 25.797250 142.563750
6511 1 10.862000 21.724000 146.637000
6512 1 10.862000 24.439500 149.352500
6513 1 13.577500 21.724000 149.352500
6514 1 13.577500 24.439500 146.637000
6515 1 12.219750 23.081750 147.994750
6516 1 12.219750 25.797250 150.710250
6517 1 14.935250 23.081750 150.710250
6518 1 14.935250 25.797250 147.994750
6519 1 10.862000 21.724000 152.068000
6520 1 10.862000 24.439500 154.783500
6521 1 13.577500 21.724000 154.783500
6522 1 13.577500 24.439500 152.068000
6523 1 12.219750 23.081750 153.425750
6524 1 12.219750 25.797250 156.141250
6525 1 14.935250 23.081750 156.141250
6526 1 14.935250 25.797250 153.425750
6527 1 10.862000 21.724000 157.499000
6528 1 10.862000 24.439500 160.214500
6529 1 13.577500 21.724000 160.214500
6530 1 13.577500 24.439500 157.499000
6531 1 12.219750 23.081750 158.856750
6532 1 12.219750 25.797250 161.572250
6533 1 14.935250 23.081750 161.572250
6534 1 14.935250 25.797250 158.856750
6535 1 10.862000 21.724000 162.930000
6536 1 10.862000 24.439500 165.645500
6537 1 13.577500 21.724000 165.645500
6538 1 13.577500 24.439500 162.930000
6539 1 12.219750 23.081750 164.287750
6540 1 12.219750 25.797250 167.003250
6541 1 14.935250 23.081750 167.003250
6542 1 14.935250 25.797250 164.287750
6543 1 10.862000 21.724000 168.361000
6544 1 10.862000 24.439500 171.076500
6545 1 13.577500 21.724000 171.076500
6546 1 13.577500 24.439500 168.361000
6547 1 12.219750 23.081750 169.718750
6548 1 12.219750 25.797250 172.434250
6549 1 14.935250 23.081750 172.434250
6550 1 14.935250 25.797250 169.718750
6551 1 10.862000 21.724000 173.792000
6552 1 10.862000 24.439500 176.507500
6553 1 13.577500 21.724000 176.507500
6554 1 13.577500 24.439500 173.792000
6555 1 12.219750 23.081750 175.149750
6556 1 12.219750 25.797250 177.865250
6557 1 14.935250 23.081750 177.865250
6558 1 14.935250 25.797250 175.149750
6559 1 10.862000 21.724000 179.223000
6560 1 10.862000 24.439500 181.938500
6561 1 13.577500 21.724000 181.938500
6562 1 13.577500 24.439500 179.223000
6563 1 12.219750 23.081750 180.580750
6564 1 12.219750 25.797250 183.296250
6565 1 14.935250 23.081750 183.296250
6566 1 14.935250 25.797250 180.580750
6567 1 10.862000 21.724000 184.654000
6568 1 10.862000 24.439500 187.369500
6569 1 13.577500 21.724000 187.369500
6570 1 13.577500 24.439500 184.654000
6571 1 12.219750 23.081750 186.011750
6572 1 12.219750 25.797250 188.727250
6573 1 14.935250 23.081750 188.727250
6574 1 14.935250 25.797250 186.011750
6575 1 10.862000 21.724000 190.085000
6576 1 10.862000 24.439500 192.800500
6577 1 13.577500 21.724000 192.800500
6578 1 13.577500 24.439500 190.085000
6579 1 12.219750 23.081750 191.442750
6580 1 12.219750 25.797250 194.158250
6581 1 14.935250 23.081750 194.158250
6582 1 14.935250 25.797250 191.442750
6583 1 10.862000 21.724000 195.516000
6584 1 10.862000 24.439500 198.231500
6585 1 13.577500 21.724000 198.231500
6586 1 13.577500 24.439500 195.516000
6587 1 12.219750 23.081750 196.873750
6588 1 12.219750 25.797250 199.589250
6589 1 14.935250 23.081750 199.589250
6590 1 14.935250 25.797250 196.873750
6591 1 10.862000 21.724000 200.947000
6592 1 10.862000 24.439500 203.662500
6593 1 13.577500 21.724000 203.662500
6594 1 13.577500 24.439500 200.947000
6595 1 12.219750 23.081750 202.304750
6596 1 12.219750 25.797250 205.020250
6597 1 14.935250 23.081750 205.020250
6598 1 14.935250 25.797250 202.304750
6599 1 10.862000 21.724000 206.378000
6600 1 10.862000 24.439500 209.093500
6601 1 13.577500 21.724000 209.093500
6602 1 13.577500 24.439500 206.378000
6603 1 12.219750 23.081750 207.735750
6604 1 12.219750 25.797250 210.451250
6605 1 14.935250 23.081750 210.451250
6606 1 14.935250 25.797250 207.735750
6607 1 10.862000 21.724000 211.809000
6608 1 10.862000 24.439500 214.524500
6609 1 13.577500 21.724000 214.524500
6610 1 13.577500 24.439500 211.809000
6611 1 12.219750 23.081750 213.166750
6612 1 12.219750 25.797250 215.882250
6613 1 14.935250 23.081750 215.882250
6614 1 14.935250 25.797250 213.166750
6615 1 10.862000 21.724000 217.240000
6616 1 10.862000 24.439500 219.955500
6617 1 13.577500 21.724000 219.955500
6618 1 13.577500 24.439500 217.240000
6619 1 12.219750 23.081750 218.597750
6620 1 12.219750 25.797250 221.313250
6621 1 14.935250 23.081750 221.313250
6622 1 14.935250 25.797250 218.597750
6623 1 10.862000 21.724000 222.671000
6624 1 10.862000 24.439500 225.386500
6625 1 13.577500 21.724000 225.386500
6626 1 13.577500 24.439500 222.671000
6627 1 12.219750 23.081750 224.028750
6628 1 12.219750 25.797250 226.744250
6629 1 14.935250 23.081750 226.744250
6630 1 14.935250 25.797250 224.028750
6631 1 10.862000 21.724000 228.102000
6632 1 10.862000 24.439500 230.817500
6633 1 13.577500 21.724000 230.817500
6634 1 13.577500 24.439500 228.102000
6635 1 12.219750 23.081750 229.459750
6636 1 12.219750 25.797250 232.175250
6637 1 14.935250 23.081750 232.175250
6638 1 14.935250 25.797250 229.459750
6639 1 10.862000 21.724000 233.533000
6640 1 10.862000 24.439500 236.248500
6641 1 13.577500 21.724000 236.248500
6642 1 13.577500 24.439500 233.533000
6643 1 12.219750 23.081750 234.890750
6644 1 12.219750 25.797250 237.606250
6645 1 14.935250 23.081750 237.606250
6646 1 14.935250 25.797250 234.890750
6647 1 10.862000 21.724000 238.964000
6648 1 10.862000 24.439500 241.679500
6649 1 13.577500 21.724000 241.679500
6650 1 13.577500 24.439500 238.964000
6651 1 12.219750 23.081750 240.321750
6652 1 12.219750 25.797250 243.037250
6653 1 14.935250 23.081750 243.037250
6654 1 14.935250 25.797250 240.321750
6655 1 10.862000 21.724000 244.395000
6656 1 10.862000 24.439500 247.110500
6657 1 13.577500 21.724000 247.110500
6658 1 13.577500 24.439500 244.395000
6659 1 12.219750 23.081750 245.752750
6660 1 12.219750 25.797250 248.468250
6661 1 14.935250 23.081750 248.468250
6662 1 14.935250 25.797250 245.752750
6663 1 10.862000 21.724000 249.826000
6664 1 10.862000 24.439500 252.541500
6665 1 13.577500 21.724000 252.541500
6666 1 13.577500 24.439500 249.826000
6667 1 12.219750 23.081750 251.183750
6668 1 12.219750 25.797250 253.899250
6669 1 14.935250 23.081750 253.899250
6670 1 14.935250 25.797250 251.183750
6671 1 10.862000 21.724000 255.257000
6672 1 10.862000 24.439500 257.972500
6673 1 13.577500 21.724000 257.972500
6674 1 13.577500 24.439500 255.257000
6675 1 12.219750 23.081750 256.614750
6676 1 12.219750 25.797250 259.330250
6677 1 14.935250 23.081750 259.330250
6678 1 14.935250 25.797250 256.614750
6679 1 10.862000 27.155000 0.000000
6680 1 10.862000 29.870500 2.715500
6681 1 13.577500 27.155000 2.715500
6682 1 13.577500 29.870500 0.000000
6683 1 12.219750 28.512750 1.357750
6684 1 12.219750 31.228250 4.073250
6685 1 14.935250 28.512750 4.073250
6686 1 14.935250 31.228250 1.357750
6687 1 10.862000 27.155000 5.431000
6688 1 10.862000 29.870500 8.146500
6689 1 13.577500 27.155000 8.146500
6690 1 13.577500 29.870500 5.431000
6691 1 12.219750 28.512750 6.788750
6692 1 12.219750 31.228250 9.504250
6693 1 14.935250 28.512750 9.504250
6694 1 14.935250 31.228250 6.788750
6695 1 10.862000 27.155000 10.862000
6696 1 10.862000 29.870500 13.577500
6697 1 13.577500 27.155000 13.577500
6698 1 13.577500 29.870500 10.862000
6699 1 12.219750 28.512750 12.219750
6700 1 12.219750 31.228250 14.935250
6701 1 14.935250 28.512750 14.935250
6702 1 14.935250 31.228250 12.219750
6703 1 10.862000 27.155000 16.293000
6704 1 10.862000 29.870500 19.008500
6705 1 13.577500 27.155000 19.008500
6706 1 13.577500 29.870500 16.293000
6707 1 12.219750 28.512750 17.650750
6708 1 12.219750 31.228250 20.366250
6709 1 14.935250 28.512750 20.366250
6710 1 14.935250 31.228250 17.650750
6711 1 10.862000 27.155000 21.724000
6712 1 10.862000 29.870500 24.439500
6713 1 13.577500 27.155000 24.439500
6714 1 13.577500 29.870500 21.724000
6715 1 12.219750 28.512750 23.081750
6716 1 12.219750 31.228250 25.797250
6717 1 14.935250 28.512750 25.797250
6718 1 14.935250 31.228250 23.081750
6719 1 10.862000 27.155000 27.155000
6720 1 10.862000 29.870500 29.870500
6721 1 13.577500 27.155000 29.870500
6722 1 13.577500 29.870500 27.155000
6723 1 12.219750 28.512750 28.512750
6724 1 12.219750 31.228250 31.228250
6725 1 14.935250 28.512750 31.228250
6726 1 14.935250 31.228250 28.512750
6727 1 10.862000 27.155000 32.586000
6728 1 10.862000 29.870500 35.301500
6729 1 13.577500 27.155000 35.301500
6730 1 13.577500 29.870500 32.586000
6731 1 12.219750 28.512750 33.943750
6732 1 12.219750 31.228250 36.659250
6733 1 14.935250 28.512750 36.659250
6734 1 14.935250 31.228250 33.943750
6735 1 10.862000 27.155000 38.017000
6736 1 10.862000 29.870500 40.732500
6737 1 13.577500 27.155000 40.732500
6738 1 13.577500 29.870500 38.017000
6739 1 12.219750 28.512750 39.374750
6740 1 12.219750 31.228250 42.090250
6741 1 14.935250 28.512750 42.090250
6742 1 14.935250 31.228250 39.374750
6743 1 10.862000 27.155000 43.448000
6744 1 10.862000 29.870500 46.163500
6745 1 13.577500 27.155000 46.163500
6746 1 13.577500 29.870500 43.448000
6747 1 12.219750 28.512750 44.805750
6748 1 12.219750 31.228250 47.521250
6749 1 14.935250 28.512750 47.521250
6750 1 14.935250 31.228250 44.805750
6751 1 10.862000 27.155000 48.879000
6752 1 10.862000 29.870500 51.594500
6753 1 13.577500 27.155000 51.594500
6754 1 13.577500 29.870500 48.879000
6755 1 12.219750 28.512750 50.236750
6756 1 12.219750 31.228250 52.952250
6757 1 14.935250 28.512750 52.952250
6758 1 14.935250 31.228250 50.236750
6759 1 10.862000 27.155000 54.310000
6760 1 10.862000 29.870500 57.025500
6761 1 13.577500 27.155000 57.025500
6762 1 13.577500 29.870500 54.310000
6763 1 12.219750 28.512750 55.667750
6764 1 12.219750 31.228250 58.383250
6765 1 14.935250 28.512750 58.383250
6766 1 14.935250 31.228250 55.667750
6767 1 10.862000 27.155000 59.741000
6768 1 10.862000 29.870500 62.456500
6769 1 13.577500 27.155000 62.456500
6770 1 13.577500 29.870500 59.741000
6771 1 12.219750 28.512750 61.098750
6772 1 12.219750 31.228250 63.814250
6773 1 14.935250 28.512750 63.814250
6774 1 14.935250 31.228250 61.098750
6775 1 10.862000 27.155000 65.172000
6776 1 10.862000 29.870500 67.887500
6777 1 13.577500 27.155000 67.887500
6778 1 13.577500 29.870500 65.172000
6779 1 12.219750 28.512750 66.529750
6780 1 12.219750 31.228250 69.245250
6781 1 14.935250 28.512750 69.245250
6782 1 14.935250 31.228250 66.529750
6783 1 10.862000 27.155000 70.603000
6784 1 10.862000 29.870500 73.318500
6785 1 13.577500 27.155000 73.318500
6786 1 13.577500 29.870500 70.603000
6787 1 12.219750 28.512750 71.960750
6788 1 12.219750 31.228250 74.676250
6789 1 14.935250 28.512750 74.676250
6790 1 14.935250 31.228250 71.960750
6791 1 10.862000 27.155000 76.034000
6792 1 10.862000 29.870500 78.749500
6793 1 13.577500 27.155000 78.749500
6794 1 13.577500 29.870500 76.034000
6795 1 12.219750 28.512750 77.391750
6796 1 12.219750 31.228250 80.107250
6797 1 14.935250 28.512750 80.107250
6798 1 14.935250 31.228250 77.391750
6799 1 10.862000 27.155000 81.465000
6800 1 10.862000 29.870500 84.180500
6801 1 13.577500 27.155000 84.180500
6802 1 13.577500 29.870500 81.465000
6803 1 12.219750 28.512750 82.822750
6804 1 12.219750 31.228250 85.538250
6805 1 14.935250 28.512750 85.538250
6806 1 14.935250 31.228250 82.822750
6807 1 10.862000 27.155000 86.896000
6808 1 10.862000 29.870500 89.611500
6809 1 13.577500 27.155000 89.611500
6810 1 13.577500 29.870500 86.896000
6811 1 12.219750 28.512750 88.253750
6812 1 12.219750 31.228250 90.969250
6813 1 14.935250 28.512750 90.969250
6814 1 14.935250 31.228250 88.253750
6815 1 10.862000 27.155000 92.327000
6816 1 10.862000 29.870500 95.042500
6817 1 13.577500 27.155000 95.042500
6818 1 13.577500 29.870500 92.327000
6819 1 12.219750 28.512750 93.684750
6820 1 12.219750 31.228250 96.400250
6821 1 14.935250 28.512750 96.400250
6822 1 14.935250 31.228250 93.684750
6823 1 10.862000 27.155000 97.758000
6824 1 10.862000 29.870500 100.473500
6825 1 13.577500 27.155000 100.473500
6826 1 13.577500 29.870500 97.758000
6827 1 12.219750 28.512750 99.115750
6828 1 12.219750 31.228250 101.831250
6829 1 14.935250 28.512750 101.831250
6830 1 14.935250 31.228250 99.115750
6831 1 10.862000 27.155000 103.189000
6832 1 10.862000 29.870500 105.904500
6833 1 13.577500 27.155000 105.904500
6834 1 13.577500 29.870500 103.189000
6835 1 12.219750 28.512750 104.546750
6836 1 12.219750 31.228250 107.262250
6837 1 14.935250 28.512750 107.262250
6838 1 14.935250 31.228250 104.546750
6839 1 10.862000 27.155000 108.620000
6840 1 10.862000 29.870500 111.335500
6841 1 13.577500 27.155000 111.335500
6842 1 13.577500 29.870500 108.620000
6843 1 12.219750 28.512750 109.977750
6844 1 12.219750 31.228250 112.693250
6845 1 14.935250 28.512750 112.693250
6846 1 14.935250 31.228250 109.977750
6847 1 10.862000 27.155000 114.051000
6848 1 10.862000 29.870500 116.766500
6849 1 13.577500 27.155000 116.766500
6850 1 13.577500 29.870500 114.051000
6851 1 12.219750 28.512750 115.408750
6852 1 12.219750 31.228250 118.124250
6853 1 14.935250 28.512750 118.124250
6854 1 14.935250 31.228250 115.408750
6855 1 10.862000 27.155000 119.482000
6856 1 10.862000 29.870500 122.197500
6857 1 13.577500 27.155000 122.197500
6858 1 13.577500 29.870500 119.482000
6859 1 12.219750 28.512750 120.839750
6860 1 12.219750 31.228250 123.555250
6861 1 14.935250 28.512750 123.555250
6862 1 14.935250 31.228250 120.839750
6863 1 10.862000 27.155000 124.913000
6864 1 10.862000 29.870500 127.628500
6865 1 13.577500 27.155000 127.628500
6866 1 13.577500 29.870500 124.913000
6867 1 12.219750 28.512750 126.270750
6868 1 12.219750 31.228250 128.986250
6869 1 14.935250 28.512750 128.986250
6870 1 14.935250 31.228250 126.270750
6871 1 10.862000 27.155000 130.344000
6872 1 10.862000 29.870500 133.059500
6873 1 13.577500 27.155000 133.059500
6874 1 13.577500 29.870500 130.344000
6875 1 12.219750 28.512750 131.701750
6876 1 12.219750 31.228250 134.417250
6877 1 14.935250 28.512750 134.417250
6878 1 14.935250 31.228250 131.701750
6879 1 10.862000 27.155000 135.775000
6880 1 10.862000 29.870500 138.490500
6881 1 13.577500 27.155000 138.490500
6882 1 13.577500 29.870500 135.775000
6883 1 12.219750 28.512750 137.132750
6884 1 12.219750 31.228250 139.848250
6885 1 14.935250 28.512750 139.848250
6886 1 14.935250 31.228250 137.132750
6887 1 10.862000 27.155000 141.206000
6888 1 10.862000 29.870500 143.921500
6889 1 13.577500 27.155000 143.921500
6890 1 13.577500 29.870500 141.206000
6891 1 12.219750 28.512750 142.563750
6892 1 12.219750 31.228250 145.279250
6893 1 14.935250 28.512750 145.279250
6894 1 14.935250 31.228250 142.563750
6895 1 10.862000 27.155000 146.637000
6896 1 10.862000 29.870500 149.352500
6897 1 13.577500 27.155000 149.352500
6898 1 13.577500 29.870500 146.637000
6899 1 12.219750 28.512750 147.994750
6900 1 12.219750 31.228250 150.710250
6901 1 14.935250 28.512750 150.710250
6902 1 14.935250 31.228250 147.994750
6903 1 10.862000 27.155000 152.068000
6904 1 10.862000 29.870500 154.783500
6905 1 13.577500 27.155000 154.783500
6906 1 13.577500 29.870500 152.068000
6907 1 12.219750 28.512750 153.425750
6908 1 12.219750 31.228250 156.141250
6909 1 14.935250 28.512750 156.141250
6910 1 14.935250 31.228250 153.425750
6911 1 10.862000 27.155000 157.499000
6912 1 10.862000 29.870500 160.214500
6913 1 13.577500 27.155000 160.214500
6914 1 13.577500 29.870500 157.499000
6915 1 12.219750 28.512750 158.856750
6916 1 12.219750 31.228250 161.572250
6917 1 14.935250 28.512750 161.572250
6918 1 14.935250 31.228250 158.856750
6919 1 10.862000 27.155000 162.930000
6920 1 10.862000 29.870500 165.645500
6921 1 13.577500 27.155000 165.645500
6922 1 13.577500 29.870500 162.930000
6923 1 12.219750 28.512750 164.287750
6924 1 12.219750 31.228250 167.003250
6925 1 14.935250 28.512750 167.003250
6926 1 14.935250 31.228250 164.287750
6927 1 10.862000 27.155000 168.361000
6928 1 10.862000 29.870500 171.076500
6929 1 13.577500 27.155000 171.076500
6930 1 13.577500 29.870500 168.361000
6931 1 12.219750 28.512750 169.718750
6932 1 12.219750 31.228250 172.434250
6933 1 14.935250 28.512750 172.434250
6934 1 14.935250 31.228250 169.718750
6935 1 10.862000 27.155000 173.792000
6936 1 10.862000 29.870500 176.507500
6937 1 13.577500 27.155000 176.507500
6938 1 13.577500 29.870500 173.792000
6939 1 12.219750 28.512750 175.149750
6940 1 12.219750 31.228250 177.865250
6941 1 14.935250 28.512750 177.865250
6942 1 14.935250 31.228250 175.149750
6943 1 10.862000 27.155000 179.223000
6944 1 10.862000 29.870500 181.938500
6945 1 13.577500 27.155000 181.938500
6946 1 13.577500 29.870500 179.223000
6947 1 12.219750 28.512750 180.580750
6948 1 12.219750 31.228250 183.296250
6949 1 14.935250 28.512750 183.296250
6950 1 14.935250 31.228250 180.580750
6951 1 10.862000 27.155000 184.654000
6952 1 10.862000 29.870500 187.369500
6953 1 13.577500 27.155000 187.369500
6954 1 13.577500 29.870500 184.654000
6955 1 12.219750 28.512750 186.011750
6956 1 12.219750 31.228250 188.727250
6957 1 14.935250 28.512750 188.727250
6958 1 14.935250 31.228250 186.011750
6959 1 10.862000 27.155000 190.085000
6960 1 10.862000 29.870500 192.800500
6961 1 13.577500 27.155000 192.800500
6962 1 13.577500 29.870500 190.085000
6963 1 12.219750 28.512750 191.442750
6964 1 12.219750 31.228250 194.158250
6965 1 14.935250 28.512750 194.158250
6966 1 14.935250 31.228250 191.442750
6967 1 10.862000 27.155000 195.516000
6968 1 10.862000 29.870500 198.231500
6969 1 13.577500 27.155000 198.231500
6970 1 13.577500 29.870500 195.516000
6971 1 12.219750 28.512750 196.873750
6972 1 12.219750 31.228250 199.589250
6973 1 14.935250 28.512750 199.589250
6974 1 14.935250 31.228250 196.873750
6975 1 10.862000 27.155000 200.947000
6976 1 10.862000 29.870500 203.662500
6977 1 13.577500 27.155000 203.662500
6978 1 13.577500 29.870500 200.947000
6979 1 12.219750 28.512750 202.304750
6980 1 12.219750 31.228250 205.020250
6981 1 14.935250 28.512750 205.020250
6982 1 14.935250 31.228250 202.304750
6983 1 10.862000 27.155000 206.378000
6984 1 10.862000 29.870500 209.093500
6985 1 13.577500 27.155000 209.093500
6986 1 13.577500 29.870500 206.378000
6987 1 12.219750 28.512750 207.735750
6988 1 12.219750 31.228250 210.451250
6989 1 14.935250 28.512750 210.451250
6990 1 14.935250 31.228250 207.735750
6991 1 10.862000 27.155000 211.809000
6992 1 10.862000 29.870500 214.524500
6993 1 13.577500 27.155000 214.524500
6994 1 13.577500 29.870500 211.809000
6995 1 12.219750 28.512750 213.166750
6996 1 12.219750 31.228250 215.882250
6997 1 14.935250 28.512750 215.882250
6998 1 14.935250 31.228250 213.166750
6999 1 10.862000 27.155000 217.240000
7000 1 10.862000 29.870500 219.955500
7001 1 13.577500 27.155000 219.955500
7002 1 13.577500 29.870500 217.240000
7003 1 12.219750 28.512750 218.597750
7004 1 12.219750 31.228250 221.313250
7005 1 14.935250 28.512750 221.313250
7006 1 14.935250 31.228250 218.597750
7007 1 10.862000 27.155000 222.671000
7008 1 10.862000 29.870500 225.386500
7009 1 13.577500 27.155000 225.386500
7010 1 13.577500 29.870500 222.671000
7011 1 12.219750 28.512750 224.028750
7012 1 12.219750 31.228250 226.744250
7013 1 14.935250 28.512750 226.744250
7014 1 14.935250 31.228250 224.028750
7015 1 10.862000 27.155000 228.102000
7016 1 10.862000 29.870500 230.817500
7017 1 13.577500 27.155000 230.817500
7018 1 13.577500 29.870500 228.102000
7019 1 12.219750 28.512750 229.459750
7020 1 12.219750 31.228250 232.175250
7021 1 14.935250 28.512750 232.175250
7022 1 14.935250 31.228250 229.459750
7023 1 10.862000 27.155000 233.533000
7024 1 10.862000 29.870500 236.248500
7025 1 13.577500 27.155000 236.248500
7026 1 13.577500 29.870500 233.533000
7027 1 12.219750 28.512750 234.890750
7028 1 12.219750 31.228250 237.606250
7029 1 14.935250 28.512750 237.606250
7030 1 14.935250 31.228250 234.890750
7031 1 10.862000 27.155000 238.964000
7032 1 10.862000 29.870500 241.679500
7033 1 13.577500 27.155000 241.679500
7034 1 13.577500 29.870500 238.964000
7035 1 12.219750 28.512750 240.321750
7036 1 12.219750 31.228250 243.037250
7037 1 14.935250 28.512750 243.037250
7038 1 14.935250 31.228250 240.321750
7039 1 10.862000 27.155000 244.395000
7040 1 10.862000 29.870500 247.110500
7041 1 13.577500 27.155000 247.110500
7042 1 13.577500 29.870500 244.395000
7043 1 12.219750 28.512750 245.752750
7044 1 12.219750 31.228250 248.468250
7045 1 14.935250 28.512750 248.468250
7046 1 14.935250 31.228250 245.752750
7047 1 10.862000 27.155000 249.826000
7048 1 10.862000 29.870500 252.541500
7049 1 13.577500 27.155000 252.541500
7050 1 13.577500 29.870500 249.826000
7051 1 12.219750 28.512750 251.183750
7052 1 12.219750 31.228250 253.899250
7053 1 14.935250 28.512750 253.899250
7054 1 14.935250 31.228250 251.183750
7055 1 10.862000 27.155000 255.257000
7056 1 10.862000 29.870500 257.972500
7057 1 13.577500 27.155000 257.972500
7058 1 13.577500 29.870500 255.257000
7059 1 12.219750 28.512750 256.614750
7060 1 12.219750 31.228250 259.330250
7061 1 14.935250 28.512750 259.330250
7062 1 14.935250 31.228250 256.614750
7063 1 10.862000 32.586000 0.000000
7064 1 10.862000 35.301500 2.715500
7065 1 13.577500 32.586000 2.715500
7066 1 13.577500 35.301500 0.000000
7067 1 12.219750 33.943750 1.357750
7068 1 12.219750 36.659250 4.073250
7069 1 14.935250 33.943750 4.073250
7070 1 14.935250 36.659250 1.357750
7071 1 10.862000 32.586000 5.431000
7072 1 10.862000 35.301500 8.146500
7073 1 13.577500 32.586000 8.146500
7074 1 13.577500 35.301500 5.431000
7075 1 12.219750 33.943750 6.788750
7076 1 12.219750 36.659250 9.504250
7077 1 14.935250 33.943750 9.504250
7078 1 14.935250 36.659250 6.788750
7079 1 10.862000 32.586000 10.862000
7080 1 10.862000 35.301500 13.577500
7081 1 13.577500 32.586000 13.577500
7082 1 13.577500 35.301500 10.862000
7083 1 12.219750 33.943750 12.219750
7084 1 12.219750 36.659250 14.935250
7085 1 14.935250 33.943750 14.935250
7086 1 14.935250 36.659250 12.219750
7087 1 10.862000 32.586000 16.293000
7088 1 10.862000 35.301500 19.008500
7089 1 13.577500 32.586000 19.008500
7090 1 13.577500 35.301500 16.293000
7091 1 12.219750 33.943750 17.650750
7092 1 12.219750 36.659250 20.366250
7093 1 14.935250 33.943750 20.366250
7094 1 14.935250 36.659250 17.650750
7095 1 10.862000 32.586000 21.724000
7096 1 10.862000 35.301500 24.439500
7097 1 13.577500 32.586000 24.439500
7098 1 13.577500 35.301500 21.724000
7099 1 12.219750 33.943750 23.081750
7100 1 12.219750 36.659250 25.797250
7101 1 14.935250 33.943750 25.797250
7102 1 14.935250 36.659250 23.081750
7103 1 10.862000 32.586000 27.155000
7104 1 10.862000 35.301500 29.870500
7105 1 13.577500 32.586000 29.870500
7106 1 13.577500 35.301500 27.155000
7107 1 12.219750 33.943750 28.512750
7108 1 12.219750 36.659250 31.228250
7109 1 14.935250 33.943750 31.228250
7110 1 14.935250 36.659250 28.512750
7111 1 10.862000 32.586000 32.586000
7112 1 10.862000 35.301500 35.301500
7113 1 13.577500 32.586000 35.301500
7114 1 13.577500 35.301500 32.586000
7115 1 12.219750 33.943750 33.943750
7116 1 12.219750 36.659250 36.659250
7117 1 14.935250 33.943750 36.659250
7118 1 14.935250 36.659250 33.943750
7119 1 10.862000 32.586000 38.017000
7120 1 10.862000 35.301500 40.732500
7121 1 13.577500 32.586000 40.732500
7122 1 13.577500 35.301500 38.017000
7123 1 12.219750 33.943750 39.374750
7124 1 12.219750 36.659250 42.090250
7125 1 14.935250 33.943750 42.090250
7126 1 14.935250 36.659250 39.374750
7127 1 10.862000 32.586000 43.448000
7128 1 10.862000 35.301500 46.163500
7129 1 13.577500 32.586000 46.163500
7130 1 13.577500 35.301500 43.448000
7131 1 12.219750 33.943750 44.805750
7132 1 12.219750 36.659250 47.521250
7133 1 14.935250 33.943750 47.521250
7134 1 14.935250 36.659250 44.805750
7135 1 10.862000 32.586000 48.879000
7136 1 10.862000 35.301500 51.594500
7137 1 13.577500 32.586000 51.594500
7138 1 13.577500 35.301500 48.879000
7139 1 12.219750 33.943750 50.236750
7140 1 12.219750 36.659250 52.952250
7141 1 14.935250 33.943750 52.952250
7142 1 14.935250 36.659250 50.236750
7143 1 10.862000 32.586000 54.310000
7144 1 10.862000 35.301500 57.025500
7145 1 13.577500 32.586000 57.025500
7146 1 13.577500 35.301500 54.310000
7147 1 12.219750 33.943750 55.667750
7148 1 12.219750 36.659250 58.383250
7149 1 14.935250 33.943750 58.383250
7150 1 14.935250 36.659250 55.667750
7151 1 10.862000 32.586000 59.741000
7152 1 10.862000 35.301500 62.456500
7153 1 13.577500 32.586000 62.456500
7154 1 13.577500 35.301500 59.741000
7155 1 12.219750 33.943750 61.098750
7156 1 12.219750 36.659250 63.814250
7157 1 14.935250 33.943750 63.814250
7158 1 14.935250 36.659250 61.098750
7159 1 10.862000 32.586000 65.172000
7160 1 10.862000 35.301500 67.887500
7161 1 13.577500 32.586000 67.887500
7162 1 13.577500 35.301500 65.172000
7163 1 12.219750 33.943750 66.529750
7164 1 12.219750 36.659250 69.245250
7165 1 14.935250 33.943750 69.245250
7166 1 14.935250 36.659250 66.529750
7167 1 10.862000 32.586000 70.603000
7168 1 10.862000 35.301500 73.318500
7169 1 13.577500 32.586000 73.318500
7170 1 13.577500 35.301500 70.603000
7171 1 12.219750 33.943750 71.960750
7172 1 12.219750 36.659250 74.676250
7173 1 14.935250 33.943750 74.676250
7174 1 14.935250 36.659250 71.960750
7175 1 10.862000 32.586000 76.034000
7176 1 10.862000 35.301500 78.749500
7177 1 13.577500 32.586000 78.749500
7178 1 13.577500 35.301500 76.034000
7179 1 12.219750 33.943750 77.391750
7180 1 12.219750 36.659250 80.107250
7181 1 14.935250 33.943750 80.107250
7182 1 14.935250 36.659250 77.391750
7183 1 10.862000 32.586000 81.465000
7184 1 10.862000 35.301500 84.180500
7185 1 13.577500 32.586000 84.180500
7186 1 13.577500 35.301500 81.465000
7187 1 12.219750 33.943750 82.822750
7188 1 12.219750 36.659250 85.538250
7189 1 14.935250 33.943750 85.538250
7190 1 14.935250 36.659250 82.822750
7191 1 10.862000 32.586000 86.896000
7192 1 10.862000 35.301500 89.611500
7193 1 13.577500 32.586000 89.611500
7194 1 13.577500 35.301500 86.896000
7195 1 12.219750 33.943750 88.253750
7196 1 12.219750 36.659250 90.969250
7197 1 14.935250 33.943750 90.969250
7198 1 14.935250 36.659250 88.253750
7199 1 10.862000 32.586000 92.327000
7200 1 10.862000 35.301500 95.042500
7201 1 13.577500 32.586000 95.042500
7202 1 13.577500 35.301500 92.327000
7203 1 12.219750 33.943750 93.684750
7204 1 12.219750 36.659250 96.400250
7205 1 14.935250 33.943750 96.400250
7206 1 14.935250 36.659250 93.684750
7207 1 10.862000 32.586000 97.758000
7208 1 10.862000 35.301500 100.473500
7209 1 13.577500 32.586000 100.473500
7210 1 13.577500 35.301500 97.758000
7211 1 12.219750 33.943750 99.115750
7212 1 12.219750 36.659250 101.831250
7213 1 14.935250 33.943750 101.831250
7214 1 14.935250 36.659250 99.115750
7215 1 10.862000 32.586000 103.189000
7216 1 10.862000 35.301500 105.904500
7217 1 13.577500 32.586000 105.904500
7218 1 13.577500 35.301500 103.189000
7219 1 12.219750 33.943750 104.546750
7220 1 12.219750 36.659250 107.262250
7221 1 14.935250 33.943750 107.262250
7222 1 14.935250 36.659250 104.546750
7223 1 10.862000 32.586000 108.620000
7224 1 10.862000 35.301500 111.335500
7225 1 13.577500 32.586000 111.335500
7226 1 13.577500 35.301500 108.620000
7227 1 12.219750 33.943750 109.977750
7228 1 12.219750 36.659250 112.693250
7229 1 14.935250 33.943750 112.693250
7230 1 14.935250 36.659250 109.977750
7231 1 10.862000 32.586000 114.051000
7232 1 10.862000 35.301500 116.766500
7233 1 13.577500 32.586000 116.766500
7234 1 13.577500 35.301500 114.051000
7235 1 12.219750 33.943750 115.408750
7236 1 12.219750 36.659250 118.124250
7237 1 14.935250 33.943750 118.124250
7238 1 14.935250 36.659250 115.408750
7239 1 10.862000 32.586000 119.482000
7240 1 10.862000 35.301500 122.197500
7241 1 13.577500 32.586000 122.197500
7242 1 13.577500 35.301500 119.482000
7243 1 12.219750 33.943750 120.839750
7244 1 12.219750 36.659250 123.555250
7245 1 14.935250 33.943750 123.555250
7246 1 14.935250 36.659250 120.839750
7247 1 10.862000 32.586000 124.913000
7248 1 10.862000 35.301500 127.628500
7249 1 13.577500 32.586000 127.628500
7250 1 13.577500 35.301500 124.913000
7251 1 12.219750 33.943750 126.270750
7252 1 12.219750 36.659250 128.986250
7253 1 14.935250 33.943750 128.986250
7254 1 14.935250 36.659250 126.270750
7255 1 10.862000 32.586000 130.344000
7256 1 10.862000 35.301500 133.059500
7257 1 13.577500 32.586000 133.059500
7258 1 13.577500 35.301500 130.344000
7259 1 12.219750 33.943750 131.701750
7260 1 12.219750 36.659250 134.417250
7261 1 14.935250 33.943750 134.417250
7262 1 14.935250 36.659250 131.701750
7263 1 10.862000 32.586000 135.775000
7264 1 10.862000 35.301500 138.490500
7265 1 13.577500 32.586000 138.490500
7266 1 13.577500 35.301500 135.775000
7267 1 12.219750 33.943750 137.132750
7268 1 12.219750 36.659250 139.848250
7269 1 14.935250 33.943750 139.848250
7270 1 14.935250 36.659250 137.132750
7271 1 10.862000 32.586000 141.206000
7272 1 10.862000 35.301500 143.921500
7273 1 13.577500 32.586000 143.921500
7274 1 13.577500 35.301500 141.206000
7275 1 12.219750 33.943750 142.563750
7276 1 12.219750 36.659250 145.279250
7277 1 14.935250 33.943750 145.279250
7278 1 14.935250 36.659250 142.563750
7279 1 10.862000 32.586000 146.637000
7280 1 10.862000 35.301500 149.352500
7281 1 13.577500 32.586000 149.352500
7282 1 13.577500 35.301500 146.637000
7283 1 12.219750 33.943750 147.994750
7284 1 12.219750 36.659250 150.710250
7285 1 14.935250 33.943750 150.710250
7286 1 14.935250 36.659250 147.994750
7287 1 10.862000 32.586000 152.068000
7288 1 10.862000 35.301500 154.783500
7289 1 13.577500 32.586000 154.783500
7290 1 13.577500 35.301500 152.068000
7291 1 12.219750 33.943750 153.425750
7292 1 12.219750 36.659250 156.141250
7293 1 14.935250 33.943750 156.141250
7294 1 14.935250 36.659250 153.425750
7295 1 10.862000 32.586000 157.499000
7296 1 10.862000 35.301500 160.214500
7297 1 13.577500 32.586000 160.214500
7298 1 13.577500 35.301500 157.499000
7299 1 12.219750 33.943750 158.856750
7300 1 12.219750 36.659250 161.572250
7301 1 14.935250 33.943750 161.572250
7302 1 14.935250 36.659250 158.856750
7303 1 10.862000 32.586000 162.930000
7304 1 10.862000 35.301500 165.645500
7305 1 13.577500 32.586000 165.645500
7306 1 13.577500 35.301500 162.930000
7307 1 12.219750 33.943750 164.287750
7308 1 12.219750 36.659250 167.003250
7309 1 14.935250 33.943750 167.003250
7310 1 14.935250 36.659250 164.287750
7311 1 10.862000 32.586000 168.361000
7312 1 10.862000 35.301500 171.076500
7313 1 13.577500 32.586000 171.076500
7314 1 13.577500 35.301500 168.361000
7315 1 12.219750 33.943750 169.718750
7316 1 12.219750 36.659250 172.434250
7317 1 14.935250 33.943750 172.434250
7318 1 14.935250 36.659250 169.718750
7319 1 10.862000 32.586000 173.792000
7320 1 10.862000 35.301500 176.507500
7321 1 13.577500 32.586000 176.507500
7322 1 13.577500 35.301500 173.792000
7323 1 12.219750 33.943750 175.149750
7324 1 12.219750 36.659250 177.865250
7325 1 14.935250 33.943750 177.865250
7326 1 14.935250 36.659250 175.149750
7327 1 10.862000 32.586000 179.223000
7328 1 10.862000 35.301500 181.938500
7329 1 13.577500 32.586000 181.938500
7330 1 13.577500 35.301500 179.223000
7331 1 12.219750 33.943750 180.580750
7332 1 12.219750 36.659250 183.296250
7333 1 14.935250 33.943750 183.296250
7334 1 14.935250 36.659250 180.580750
7335 1 10.862000 32.586000 184.654000
7336 1 10.862000 35.301500 187.369500
7337 1 13.577500 32.586000 187.369500
7338 1 13.577500 35.301500 184.654000
7339 1 12.219750 33.943750 186.011750
7340 1 12.219750 36.659250 188.727250
7341 1 14.935250 33.943750 188.727250
7342 1 14.935250 36.659250 186.011750
7343 1 10.862000 32.586000 190.085000
7344 1 10.862000 35.301500 192.800500
7345 1 13.577500 32.586000 192.800500
7346 1 13.577500 35.301500 190.085000
7347 1 12.219750 33.943750 191.442750
7348 1 12.219750 36.659250 194.158250
7349 1 14.935250 33.943750 194.158250
7350 1 14.935250 36.659250 191.442750
7351 1 10.862000 32.586000 195.516000
7352 1 10.862000 35.301500 198.231500
7353 1 13.577500 32.586000 198.231500
7354 1 13.577500 35.301500 195.516000
7355 1 12.219750 33.943750 196.873750
7356 1 12.219750 36.659250 199.589250
7357 1 14.935250 33.943750 199.589250
7358 1 14.935250 36.659250 196.873750
7359 1 10.862000 32.586000 200.947000
7360 1 10.862000 35.301500 203.662500
7361 1 13.577500 32.586000 203.662500
7362 1 13.577500 35.301500 200.947000
7363 1 12.219750 33.943750 202.304750
7364 1 12.219750 36.659250 205.020250
7365 1 14.935250 33.943750 205.020250
7366 1 14.935250 36.659250 202.304750
7367 1 10.862000 32.586000 206.378000
7368 1 10.862000 35.301500 209.093500
7369 1 13.577500 32.586000 209.093500
7370 1 13.577500 35.301500 206.378000
7371 1 12.219750 33.943750 207.735750
7372 1 12.219750 36.659250 210.451250
7373 1 14.935250 33.943750 210.451250
7374 1 14.935250 36.659250 207.735750
7375 1 10.862000 32.586000 211.809000
7376 1 10.862000 35.301500 214.524500
7377 1 13.577500 32.586000 214.524500
7378 1 13.577500 35.301500 211.809000
7379 1 12.219750 33.943750 213.166750
7380 1 12.219750 36.659250 215.882250
7381 1 14.935250 33.943750 215.882250
7382 1 14.935250 36.659250 213.166750
7383 1 10.862000 32.586000 217.240000
7384 1 10.862000 35.301500 219.955500
7385 1 13.577500 32.586000 219.955500
7386 1 13.577500 35.301500 217.240000
7387 1 12.219750 33.943750 218.597750
7388 1 12.219750 36.659250 221.313250
7389 1 14.935250 33.943750 221.313250
7390 1 14.935250 36.659250 218.597750
7391 1 10.862000 32.586000 222.671000
7392 1 10.862000 35.301500 225.386500
7393 1 13.577500 32.586000 225.386500
7394 1 13.577500 35.301500 222.671000
7395 1 12.219750 33.943750 224.028750
7396 1 12.219750 36.659250 226.744250
7397 1 14.935250 33.943750 226.744250
7398 1 14.935250 36.659250 224.028750
7399 1 10.862000 32.586000 228.102000
7400 1 10.862000 35.301500 230.817500
7401 1 13.577500 32.586000 230.817500
7402 1 13.577500 35.301500 228.102000
7403 1 12.219750 33.943750 229.459750
7404 1 12.219750 36.659250 232.175250
7405 1 14.935250 33.943750 232.175250
7406 1 14.935250 36.659250 229.459750
7407 1 10.862000 32.586000 233.533000
7408 1 10.862000 35.301500 236.248500
7409 1 13.577500 32.586000 236.248500
7410 1 13.577500 35.301500 233.533000
7411 1 12.219750 33.943750 234.890750
7412 1 12.219750 36.659250 237.606250
7413 1 14.935250 33.943750 237.606250
7414 1 14.935250 36.659250 234.890750
7415 1 10.862000 32.586000 238.964000
7416 1 10.862000 35.301500 241.679500
7417 1 13.577500 32.586000 241.679500
7418 1 13.577500 35.301500 238.964000
7419 1 12.219750 33.943750 240.321750
7420 1 12.219750 36.659250 243.037250
7421 1 14.935250 33.943750 243.037250
7422 1 14.935250 36.659250 240.321750
7423 1 10.862000 32.586000 244.395000
7424 1 10.862000 35.301500 247.110500
7425 1 13.577500 32.586000 247.110500
7426 1 13.577500 35.301500 244.395000
7427 1 12.219750 33.943750 245.752750
7428 1 12.219750 36.659250 248.468250
7429 1 14.935250 33.943750 248.468250
7430 1 14.935250 36.659250 245.752750
7431 1 10.862000 32.586000 249.826000
7432 1 10.862000 35.301500 252.541500
7433 1 13.577500 32.586000 252.541500
7434 1 13.577500 35.301500 249.826000
7435 1 12.219750 33.943750 251.183750
7436 1 12.219750 36.659250 253.899250
7437 1 14.935250 33.943750 253.899250
7438 1 14.935250 36.659250 251.183750
7439 1 10.862000 32.586000 255.257000
7440 1 10.862000 35.301500 257.972500
7441 1 13.577500 32.586000 257.972500
7442 1 13.577500 35.301500 255.257000
7443 1 12.219750 33.943750 256.614750
7444 1 12.219750 36.659250 259.330250
7445 1 14.935250 33.943750 259.330250
7446 1 14.935250 36.659250 256.614750
7447 1 10.862000 38.017000 0.000000
7448 1 10.862000 40.732500 2.715500
7449 1 13.577500 38.017000 2.715500
7450 1 13.577500 40.732500 0.000000
7451 1 12.219750 39.374750 1.357750
7452 1 12.219750 42.090250 4.073250
7453 1 14.935250 39.374750 4.073250
7454 1 14.935250 42.090250 1.357750
7455 1 10.862000 38.017000 5.431000
7456 1 10.862000 40.732500 8.146500
7457 1 13.577500 38.017000 8.146500
7458 1 13.577500 40.732500 5.431000
7459 1 12.219750 39.374750 6.788750
7460 1 12.219750 42.090250 9.504250
7461 1 14.935250 39.374750 9.504250
7462 1 14.935250 42.090250 6.788750
7463 1 10.862000 38.017000 10.862000
7464 1 10.862000 40.732500 13.577500
7465 1 13.577500 38.017000 13.577500
7466 1 13.577500 40.732500 10.862000
7467 1 12.219750 39.374750 12.219750
7468 1 12.219750 42.090250 14.935250
7469 1 14.935250 39.374750 14.935250
7470 1 14.935250 42.090250 12.219750
7471 1 10.862000 38.017000 16.293000
7472 1 10.862000 40.732500 19.008500
7473 1 13.577500 38.017000 19.008500
7474 1 13.577500 40.732500 16.293000
7475 1 12.219750 39.374750 17.650750
7476 1 12.219750 42.090250 20.366250
7477 1 14.935250 39.374750 20.366250
7478 1 14.935250 42.090250 17.650750
7479 1 10.862000 38.017000 21.724000
7480 1 10.862000 40.732500 24.439500
7481 1 13.577500 38.017000 24.439500
7482 1 13.577500 40.732500 21.724000
7483 1 12.219750 39.374750 23.081750
7484 1 12.219750 42.090250 25.797250
7485 1 14.935250 39.374750 25.797250
7486 1 14.935250 42.090250 23.081750
7487 1 10.862000 38.017000 27.155000
7488 1 10.862000 40.732500 29.870500
7489 1 13.577500 38.017000 29.870500
7490 1 13.577500 40.732500 27.155000
7491 1 12.219750 39.374750 28.512750
7492 1 12.219750 42.090250 31.228250
7493 1 14.935250 39.374750 31.228250
7494 1 14.935250 42.090250 28.512750
7495 1 10.862000 38.017000 32.586000
7496 1 10.862000 40.732500 35.301500
7497 1 13.577500 38.017000 35.301500
7498 1 13.577500 40.732500 32.586000
7499 1 12.219750 39.374750 33.943750
7500 1 12.219750 42.090250 36.659250
7501 1 14.935250 39.374750 36.659250
7502 1 14.935250 42.090250 33.943750
7503 1 10.862000 38.017000 38.017000
7504 1 10.862000 40.732500 40.732500
7505 1 13.577500 38.017000 40.732500
7506 1 13.577500 40.732500 38.017000
7507 1 12.219750 39.374750 39.374750
7508 1 12.219750 42.090250 42.090250
7509 1 14.935250 39.374750 42.090250
7510 1 14.935250 42.090250 39.374750
7511 1 10.862000 38.017000 43.448000
7512 1 10.862000 40.732500 46.163500
7513 1 13.577500 38.017000 46.163500
7514 1 13.577500 40.732500 43.448000
7515 1 12.219750 39.374750 44.805750
7516 1 12.219750 42.090250 47.521250
7517 1 14.935250 39.374750 47.521250
7518 1 14.935250 42.090250 44.805750
7519 1 10.862000 38.017000 48.879000
7520 1 10.862000 40.732500 51.594500
7521 1 13.577500 38.017000 51.594500
7522 1 13.577500 40.732500 48.879000
7523 1 12.219750 39.374750 50.236750
7524 1 12.219750 42.090250 52.952250
7525 1 14.935250 39.374750 52.952250
7526 1 14.935250 42.090250 50.236750
7527 1 10.862000 38.017000 54.310000
7528 1 10.862000 40.732500 57.025500
7529 1 13.577500 38.017000 57.025500
7530 1 13.577500 40.732500 54.310000
7531 1 12.219750 39.374750 55.667750
7532 1 12.219750 42.090250 58.383250
7533 1 14.935250 39.374750 58.383250
7534 1 14.935250 42.090250 55.667750
7535 1 10.862000 38.017000 59.741000
7536 1 10.862000 40.732500 62.456500
7537 1 13.577500 38.017000 62.456500
7538 1 13.577500 40.732500 59.741000
7539 1 12.219750 39.374750 61.098750
7540 1 12.219750 42.090250 63.814250
7541 1 14.935250 39.374750 63.814250
7542 1 14.935250 42.090250 61.098750
7543 1 10.862000 38.017000 65.172000
7544 1 10.862000 40.732500 67.887500
7545 1 13.577500 38.017000 67.887500
7546 1 13.577500 40.732500 65.172000
7547 1 12.219750 39.374750 66.529750
7548 1 12.219750 42.090250 69.245250
7549 1 14.935250 39.374750 69.245250
7550 1 14.935250 42.090250 66.529750
7551 1 10.862000 38.017000 70.603000
7552 1 10.862000 40.732500 73.318500
7553 1 13.577500 38.017000 73.318500
7554 1 13.577500 40.732500 70.603000
7555 1 12.219750 39.374750 71.960750
7556 1 12.219750 42.090250 74.676250
7557 1 14.935250 39.374750 74.676250
7558 1 14.935250 42.090250 71.960750
7559 1 10.862000 38.017000 76.034000
7560 1 10.862000 40.732500 78.749500
7561 1 13.577500 38.017000 78.749500
7562 1 13.577500 40.732500 76.034000
7563 1 12.219750 39.374750 77.391750
7564 1 12.219750 42.090250 80.107250
7565 1 14.935250 39.374750 80.107250
7566 1 14.935250 42.090250 77.391750
7567 1 10.862000 38.017000 81.465000
7568 1 10.862000 40.732500 84.180500
7569 1 13.577500 38.017000 84.180500
7570 1 13.577500 40.732500 81.465000
7571 1 12.219750 39.374750 82.822750
7572 1 12.219750 42.090250 85.538250
7573 1 14.935250 39.374750 85.538250
7574 1 14.935250 42.090250 82.822750
7575 1 10.862000 38.017000 86.896000
7576 1 10.862000 40.732500 89.611500
7577 1 13.577500 38.017000 89.611500
7578 1 13.577500 40.732500 86.896000
7579 1 12.219750 39.374750 88.253750
7580 1 12.219750 42.090250 90.969250
7581 1 14.935250 39.374750 90.969250
7582 1 14.935250 42.090250 88.253750
7583 1 10.862000 38.017000 92.327000
7584 1 10.862000 40.732500 95.042500
7585 1 13.577500 38.017000 95.042500
7586 1 13.577500 40.732500 92.327000
7587 1 12.219750 39.374750 93.684750
7588 1 12.219750 42.090250 96.400250
7589 1 14.935250 39.374750 96.400250
7590 1 14.935250 42.090250 93.684750
7591 1 10.862000 38.017000 97.758000
7592 1 10.862000 40.732500 100.473500
7593 1 13.577500 38.017000 100.473500
7594 1 13.577500 40.732500 97.758000
7595 1 12.219750 39.374750 99.115750
7596 1 12.219750 42.090250 101.831250
7597 1 14.935250 39.374750 101.831250
7598 1 14.935250 42.090250 99.115750
7599 1 10.862000 38.017000 103.189000
7600 1 10.862000 40.732500 105.904500
7601 1 13.577500 38.017000 105.904500
7602 1 13.577500 40.732500 103.189000
7603 1 12.219750 39.374750 104.546750
7604 1 12.219750 42.090250 107.262250
7605 1 14.935250 39.374750 107.262250
7606 1 14.935250 42.090250 104.546750
7607 1 10.862000 38.017000 108.620000
7608 1 10.862000 40.732500 111.335500
7609 1 13.577500 38.017000 111.335500
7610 1 13.577500 40.732500 108.620000
7611 1 12.219750 39.374750 109.977750
7612 1 12.219750 42.090250 112.693250
7613 1 14.935250 39.374750 112.693250
7614 1 14.935250 42.090250 109.977750
7615 1 10.862000 38.017000 114.051000
7616 1 10.862000 40.732500 116.766500
7617 1 13.577500 38.017000 116.766500
7618 1 13.577500 40.732500 114.051000
7619 1 12.219750 39.374750 115.408750
7620 1 12.219750 42.090250 118.124250
7621 1 14.935250 39.374750 118.124250
7622 1 14.935250 42.090250 115.408750
7623 1 10.862000 38.017000 119.482000
7624 1 10.862000 40.732500 122.197500
7625 1 13.577500 38.017000 122.197500
7626 1 13.577500 40.732500 119.482000
7627 1 12.219750 39.374750 120.839750
7628 1 12.219750 42.090250 123.555250
7629 1 14.935250 39.374750 123.555250
7630 1 14.935250 42.090250 120.839750
7631 1 10.862000 38.017000 124.913000
7632 1 10.862000 40.732500 127.628500
7633 1 13.577500 38.017000 127.628500
7634 1 13.577500 40.732500 124.913000
7635 1 12.219750 39.374750 126.270750
7636 1 12.219750 42.090250 128.986250
7637 1 14.935250 39.374750 128.986250
7638 1 14.935250 42.090250 126.270750
7639 1 10.862000 38.017000 130.344000
7640 1 10.862000 40.732500 133.059500
7641 1 13.577500 38.017000 133.059500
7642 1 13.577500 40.732500 130.344000
7643 1 12.219750 39.374750 131.701750
7644 1 12.219750 42.090250 134.417250
7645 1 14.935250 39.374750 134.417250
7646 1 14.935250 42.090250 131.701750
7647 1 10.862000 38.017000 135.775000
7648 1 10.862000 40.732500 138.490500
7649 1 13.577500 38.017000 138.490500
7650 1 13.577500 40.732500 135.775000
7651 1 12.219750 39.374750 137.132750
7652 1 12.219750 42.090250 139.848250
7653 1 14.935250 39.374750 139.848250
7654 1 14.935250 42.090250 137.132750
7655 1 10.862000 38.017000 141.206000
7656 1 10.862000 40.732500 143.921500
7657 1 13.577500 38.017000 143.921500
7658 1 13.577500 40.732500 141.206000
7659 1 12.219750 39.374750 142.563750
7660 1 12.219750 42.090250 145.279250
7661 1 14.935250 39.374750 145.279250
7662 1 14.935250 42.090250 142.563750
7663 1 10.862000 38.017000 146.637000
7664 1 10.862000 40.732500 149.352500
7665 1 13.577500 38.017000 149.352500
7666 1 13.577500 40.732500 146.637000
7667 1 12.219750 39.374750 147.994750
7668 1 12.219750 42.090250 150.710250
7669 1 14.935250 39.374750 150.710250
7670 1 14.935250 42.090250 147.994750
7671 1 10.862000 38.017000 152.068000
7672 1 10.862000 40.732500 154.783500
7673 1 13.577500 38.017000 154.783500
7674 1 13.577500 40.732500 152.068000
7675 1 12.219750 39.374750 153.425750
7676 1 12.219750 42.090250 156.141250
7677 1 14.935250 39.374750 156.141250
7678 1 14.935250 42.090250 153.425750
7679 1 10.862000 38.017000 157.499000
7680 1 10.862000 40.732500 160.214500
7681 1 13.577500 38.017000 160.214500
7682 1 13.577500 40.732500 157.499000
7683 1 12.219750 39.374750 158.856750
7684 1 12.219750 42.090250 161.572250
7685 1 14.935250 39.374750 161.572250
7686 1 14.935250 42.090250 158.856750
7687 1 10.862000 38.017000 162.930000
7688 1 10.862000 40.732500 165.645500
7689 1 13.577500 38.017000 165.645500
7690 1 13.577500 40.732500 162.930000
7691 1 12.219750 39.374750 164.287750
7692 1 12.219750 42.090250 167.003250
7693 1 14.935250 39.374750 167.003250
7694 1 14.935250 42.090250 164.287750
7695 1 10.862000 38.017000 168.361000
7696 1 10.862000 40.732500 171.076500
7697 1 13.577500 38.017000 171.076500
7698 1 13.577500 40.732500 168.361000
7699 1 12.219750 39.374750 169.718750
7700 1 12.219750 42.090250 172.434250
7701 1 14.935250 39.374750 172.434250
7702 1 14.935250 42.090250 169.718750
7703 1 10.862000 38.017000 173.792000
7704 1 10.862000 40.732500 176.507500
7705 1 13.577500 38.017000 176.507500
7706 1 13.577500 40.732500 173.792000
7707 1 12.219750 39.374750 175.149750
7708 1 12.219750 42.090250 177.865250
7709 1 14.935250 39.374750 177.865250
7710 1 14.935250 42.090250 175.149750
7711 1 10.862000 38.017000 179.223000
7712 1 10.862000 40.732500 181.938500
7713 1 13.577500 38.017000 181.938500
7714 1 13.577500 40.732500 179.223000
7715 1 12.219750 39.374750 180.580750
7716 1 12.219750 42.090250 183.296250
7717 1 14.935250 39.374750 183.296250
7718 1 14.935250 42.090250 180.580750
7719 1 10.862000 38.017000 184.654000
7720 1 10.862000 40.732500 187.369500
7721 1 13.577500 38.017000 187.369500
7722 1 13.577500 40.732500 184.654000
7723 1 12.219750 39.374750 186.011750
7724 1 12.219750 42.090250 188.727250
7725 1 14.935250 39.374750 188.727250
7726 1 14.935250 42.090250 186.011750
7727 1 10.862000 38.017000 190.085000
7728 1 10.862000 40.732500 192.800500
7729 1 13.577500 38.017000 192.800500
7730 1 13.577500 40.732500 190.085000
7731 1 12.219750 39.374750 191.442750
7732 1 12.219750 42.090250 194.158250
7733 1 14.935250 39.374750 194.158250
7734 1 14.935250 42.090250 191.442750
7735 1 10.862000 38.017000 195.516000
7736 1 10.862000 40.732500 198.231500
7737 1 13.577500 38.017000 198.231500
7738 1 13.577500 40.732500 195.516000
7739 1 12.219750 39.374750 196.873750
7740 1 12.219750 42.090250 199.589250
7741 1 14.935250 39.374750 199.589250
7742 1 14.935250 42.090250 196.873750
7743 1 10.862000 38.017000 200.947000
7744 1 10.862000 40.732500 203.662500
7745 1 13.577500 38.017000 203.662500
7746 1 13.577500 40.732500 200.947000
7747 1 12.219750 39.374750 202.304750
7748 1 12.219750 42.090250 205.020250
7749 1 14.935250 39.374750 205.020250
7750 1 14.935250 42.090250 202.304750
7751 1 10.862000 38.017000 206.378000
7752 1 10.862000 40.732500 209.093500
7753 1 13.577500 38.017000 209.093500
7754 1 13.577500 40.732500 206.378000
7755 1 12.219750 39.374750 207.735750
7756 1 12.219750 42.090250 210.451250
7757 1 14.935250 39.374750 210.451250
7758 1 14.935250 42.090250 207.735750
7759 1 10.862000 38.017000 211.809000
7760 1 10.862000 40.732500 214.524500
7761 1 13.577500 38.017000 214.524500
7762 1 13.577500 40.732500 211.809000
7763 1 12.219750 39.374750 213.166750
7764 1 12.219750 42.090250 215.882250
7765 1 14.935250 39.374750 215.882250
7766 1 14.935250 42.090250 213.166750
7767 1 10.862000 38.017000 217.240000
7768 1 10.862000 40.732500 219.955500
7769 1 13.577500 38.017000 219.955500
7770 1 13.577500 40.732500 217.240000
7771 1 12.219750 39.374750 218.597750
7772 1 12.219750 42.090250 221.313250
7773 1 14.935250 39.374750 221.313250
7774 1 14.935250 42.090250 218.597750
7775 1 10.862000 38.017000 222.671000
7776 1 10.862000 40.732500 225.386500
7777 1 13.577500 38.017000 225.386500
7778 1 13.577500 40.732500 222.671000
7779 1 12.219750 39.374750 224.028750
7780 1 12.219750 42.090250 226.744250
7781 1 14.935250 39.374750 226.744250
7782 1 14.935250 42.090250 224.028750
7783 1 10.862000 38.017000 228.102000
7784 1 10.862000 40.732500 230.817500
7785 1 13.577500 38.017000 230.817500
7786 1 13.577500 40.732500 228.102000
7787 1 12.219750 39.374750 229.459750
7788 1 12.219750 42.090250 232.175250
7789 1 14.935250 39.374750 232.175250
7790 1 14.935250 42.090250 229.459750
7791 1 10.862000 38.017000 233.533000
7792 1 10.862000 40.732500 236.248500
7793 1 13.577500 38.017000 236.248500
7794 1 13.577500 40.732500 233.533000
7795 1 12.219750 39.374750 234.890750
7796 1 12.219750 42.090250 237.606250
7797 1 14.935250 39.374750 237.606250
7798 1 14.935250 42.090250 234.890750
7799 1 10.862000 38.017000 238.964000
7800 1 10.862000 40.732500 241.679500
7801 1 13.577500 38.017000 241.679500
7802 1 13.577500 40.732500 238.964000
7803 1 12.219750 39.374750 240.321750
7804 1 12.219750 42.090250 243.037250
7805 1 14.935250 39.374750 243.037250
7806 1 14.935250 42.090250 240.321750
7807 1 10.862000 38.017000 244.395000
7808 1 10.862000 40.732500 247.110500
7809 1 13.577500 38.017000 247.110500
7810 1 13.577500 40.732500 244.395000
7811 1 12.219750 39.374750 245.752750
7812 1 12.219750 42.090250 248.468250
7813 1 14.935250 39.374750 248.468250
7814 1 14.935250 42.090250 245.752750
7815 1 10.862000 38.017000 249.826000
7816 1 10.862000 40.732500 252.541500
7817 1 13.577500 38.017000 252.541500
7818 1 13.577500 40.732500 249.826000
7819 1 12.219750 39.374750 251.183750
7820 1 12.219750 42.090250 253.899250
7821 1 14.935250 39.374750 253.899250
7822 1 14.935250 42.090250 251.183750
7823 1 10.862000 38.017000 255.257000
7824 1 10.862000 40.732500 257.972500
7825 1 13.577500 38.017000 257.972500
7826 1 13.577500 40.732500 255.257000
7827 1 12.219750 39.374750 256.614750
7828 1 12.219750 42.090250 259.330250
7829 1 14.935250 39.374750 259.330250
7830 1 14.935250 42.090250 256.614750
7831 1 16.293000 2.715500 24.439500
7832 1 19.008500 0.000000 24.439500
7833 1 17.650750 1.357750 23.081750
7834 1 17.650750 4.073250 25.797250
7835 1 20.366250 1.357750 25.797250
7836 1 20.366250 4.073250 23.081750
7837 1 16.293000 0.000000 27.155000
7838 1 16.293000 2.715500 29.870500
7839 1 19.008500 0.000000 29.870500
7840 1 19.008500 2.715500 27.155000
7841 1 17.650750 1.357750 28.512750
7842 1 17.650750 4.073250 31.228250
7843 1 20.366250 1.357750 31.228250
7844 1 20.366250 4.073250 28.512750
7845 1 16.293000 0.000000 32.586000
7846 1 16.293000 2.715500 35.301500
7847 1 19.008500 0.000000 35.301500
7848 1 19.008500 2.715500 32.586000
7849 1 17.650750 1.357750 33.943750
7850 1 17.650750 4.073250 36.659250
7851 1 20.366250 1.357750 36.659250
7852 1 20.366250 4.073250 33.943750
7853 1 16.293000 0.000000 38.017000
7854 1 16.293000 2.715500 40.732500
7855 1 19.008500 0.000000 40.732500
7856 1 19.008500 2.715500 38.017000
7857 1 17.650750 1.357750 39.374750
7858 1 17.650750 4.073250 42.090250
7859 1 20.366250 1.357750 42.090250
7860 1 20.366250 4.073250 39.374750
7861 1 16.293000 2.715500 67.887500
7862 1 19.008500 0.000000 67.887500
7863 1 17.650750 1.357750 66.529750
7864 1 17.650750 4.073250 69.245250
7865 1 20.366250 1.357750 69.245250
7866 1 20.366250 4.073250 66.529750
7867 1 16.293000 0.000000 70.603000
7868 1 16.293000 2.715500 73.318500
7869 1 19.008500 0.000000 73.318500
7870 1 19.008500 2.715500 70.603000
7871 1 17.650750 1.357750 71.960750
7872 1 17.650750 4.073250 74.676250
7873 1 20.366250 1.357750 74.676250
7874 1 20.366250 4.073250 71.960750
7875 1 16.293000 0.000000 76.034000
7876 1 16.293000 2.715500 78.749500
7877 1 19.008500 0.000000 78.749500
7878 1 19.008500 2.715500 76.034000
7879 1 17.650750 1.357750 77.391750
7880 1 17.650750 4.073250 80.107250
7881 1 20.366250 1.357750 80.107250
7882 1 20.366250 4.073250 77.391750
7883 1 16.293000 0.000000 81.465000
7884 1 16.293000 2.715500 84.180500
7885 1 19.008500 0.000000 84.180500
7886 1 19.008500 2.715500 81.465000
7887 1 17.650750 1.357750 82.822750
7888 1 17.650750 4.073250 85.538250
7889 1 20.366250 1.357750 85.538250
7890 1 20.366250 4.073250 82.822750
7891 1 16.293000 2.715500 111.335500
7892 1 19.008500 0.000000 111.335500
7893 1 17.650750 1.357750 109.977750
7894 1 17.650750 4.073250 112.693250
7895 1 20.366250 1.357750 112.693250
7896 1 20.366250 4.073250 109.977750
7897 1 16.293000 0.000000 114.051000
7898 1 16.293000 2.715500 116.766500
7899 1 19.008500 0.000000 116.766500
7900 1 19.008500 2.715500 114.051000
7901 1 17.650750 1.357750 115.408750
7902 1 17.650750 4.073250 118.124250
7903 1 20.366250 1.357750 118.124250
7904 1 20.366250 4.073250 115.408750
7905 1 16.293000 0.000000 119.482000
7906 1 16.293000 2.715500 122.197500
7907 1 19.008500 0.000000 122.197500
7908 1 19.008500 2.715500 119.482000
7909 1 17.650750 1.357750 120.839750
7910 1 17.650750 4.073250 123.555250
7911 1 20.366250 1.357750 123.555250
7912 1 20.366250 4.073250 120.839750
7913 1 16.293000 0.000000 124.913000
7914 1 16.293000 2.715500 127.628500
7915 1 19.008500 0.000000 127.628500
7916 1 19.008500 2.715500 124.913000
7917 1 17.650750 1.357750 126.270750
7918 1 17.650750 4.073250 128.986250
7919 1 20.366250 1.357750 128.986250
7920 1 20.366250 4.073250 126.270750
7921 1 16.293000 2.715500 154.783500
7922 1 19.008500 0.000000 154.783500
7923 1 17.650750 1.357750 153.425750
7924 1 17.650750 4.073250 156.141250
7925 1 20.366250 1.357750 156.141250
7926 1 20.366250 4.073250 153.425750
7927 1 16.293000 0.000000 157.499000
7928 1 16.293000 2.715500 160.214500
7929 1 19.008500 0.000000 160.214500
7930 1 19.008500 2.715500 157.499000
7931 1 17.650750 1.357750 158.856750
7932 1 17.650750 4.073250 161.572250
7933 1 20.366250 1.357750 161.572250
7934 1 20.366250 4.073250 158.856750
7935 1 16.293000 0.000000 162.930000
7936 1 16.293000 2.715500 165.645500
7937 1 19.008500 0.000000 165.645500
7938 1 19.008500 2.715500 162.930000
7939 1 17.650750 1.357750 164.287750
7940 1 17.650750 4.073250 167.003250
7941 1 20.366250 1.357750 167.003250
7942 1 20.366250 4.073250 164.287750
7943 1 16.293000 0.000000 168.361000
7944 1 16.293000 2.715500 171.076500
7945 1 19.008500 0.000000 171.076500
7946 1 19.008500 2.715500 168.361000
7947 1 17.650750 1.357750 169.718750
7948 1 17.650750 4.073250 172.434250
7949 1 20.366250 1.357750 172.434250
7950 1 20.366250 4.073250 169.718750
7951 1 16.293000 2.715500 198.231500
7952 1 19.008500 0.000000 198.231500
7953 1 17.650750 1.357750 196.873750
7954 1 17.650750 4.073250 199.589250
7955 1 20.366250 1.357750 199.589250
7956 1 20.366250 4.073250 196.873750
7957 1 16.293000 0.000000 200.947000
7958 1 16.293000 2.715500 203.662500
7959 1 19.008500 0.000000 203.662500
7960 1 19.008500 2.715500 200.947000
7961 1 17.650750 1.357750 202.304750
7962 1 17.650750 4.073250 205.020250
7963 1 20.366250 1.357750 205.020250
7964 1 20.366250 4.073250 202.304750
7965 1 16.293000 0.000000 206.378000
7966 1 16.293000 2.715500 209.093500
7967 1 19.008500 0.000000 209.093500
7968 1 19.008500 2.715500 206.378000
7969 1 17.650750 1.357750 207.735750
7970 1 17.650750 4.073250 210.451250
7971 1 20.366250 1.357750 210.451250
7972 1 20.366250 4.073250 207.735750
7973 1 16.293000 0.000000 211.809000
7974 1 16.293000 2.715500 214.524500
7975 1 19.008500 0.000000 214.524500
7976 1 19.008500 2.715500 211.809000
7977 1 17.650750 1.357750 213.166750
7978 1 17.650750 4.073250 215.882250
7979 1 20.366250 1.357750 215.882250
7980 1 20.366250 4.073250 213.166750
7981 1 16.293000 2.715500 241.679500
7982 1 19.008500 0.000000 241.679500
7983 1 17.650750 1.357750 240.321750
7984 1 17.650750 4.073250 243.037250
7985 1 20.366250 1.357750 243.037250
7986 1 20.366250 4.073250 240.321750
7987 1 16.293000 0.000000 244.395000
7988 1 16.293000 2.715500 247.110500
7989 1 19.008500 0.000000 247.110500
7990 1 19.008500 2.715500 244.395000
7991 1 17.650750 1.357750 245.752750
7992 1 17.650750 4.073250 248.468250
7993 1 20.366250 1.357750 248.468250
7994 1 20.366250 4.073250 245.752750
7995 1 16.293000 0.000000 249.826000
7996 1 16.293000 2.715500 252.541500
7997 1 19.008500 0.000000 252.541500
7998 1 19.008500 2.715500 249.826000
7999 1 17.650750 1.357750 251.183750
8000 1 17.650750 4.073250 253.899250
8001 1 20.366250 1.357750 253.899250
8002 1 20.366250 4.073250 251.183750
8003 1 16.293000 0.000000 255.257000
8004 1 16.293000 2.715500 257.972500
8005 1 19.008500 0.000000 257.972500
8006 1 19.008500 2.715500 255.257000
8007 1 17.650750 1.357750 256.614750
8008 1 17.650750 4.073250 259.330250
8009 1 20.366250 1.357750 259.330250
8010 1 20.366250 4.073250 256.614750
8011 1 16.293000 8.146500 24.439500
8012 1 19.008500 5.431000 24.439500
8013 1 17.650750 6.788750 23.081750
8014 1 17.650750 9.504250 25.797250
8015 1 20.366250 6.788750 25.797250
8016 1 20.366250 9.504250 23.081750
8017 1 16.293000 5.431000 27.155000
8018 1 16.293000 8.146500 29.870500
8019 1 19.008500 5.431000 29.870500
8020 1 19.008500 8.146500 27.155000
8021 1 17.650750 6.788750 28.512750
8022 1 17.650750 9.504250 31.228250
8023 1 20.366250 6.788750 31.228250
8024 1 20.366250 9.504250 28.512750
8025 1 16.293000 5.431000 32.586000
8026 1 16.293000 8.146500 35.301500
8027 1 19.008500 5.431000 35.301500
8028 1 19.008500 8.146500 32.586000
8029 1 17.650750 6.788750 33.943750
8030 1 17.650750 9.504250 36.659250
8031 1 20.366250 6.788750 36.659250
8032 1 20.366250 9.504250 33.943750
8033 1 16.293000 5.431000 38.017000
8034 1 16.293000 8.146500 40.732500
8035 1 19.008500 5.431000 40.732500
8036 1 19.008500 8.146500 38.017000
8037 1 17.650750 6.788750 39.374750
8038 1 17.650750 9.504250 42.090250
8039 1 20.366250 6.788750 42.090250
8040 1 20.366250 9.504250 39.374750
8041 1 16.293000 8.146500 67.887500
8042 1 19.008500 5.431000 67.887500
8043 1 17.650750 6.788750 66.529750
8044 1 17.650750 9.504250 69.245250
8045 1 20.366250 6.788750 69.245250
8046 1 20.366250 9.504250 66.529750
8047 1 16.293000 5.431000 70.603000
8048 1 16.293000 8.146500 73.318500
8049 1 19.008500 5.431000 73.318500
8050 1 19.008500 8.146500 70.603000
8051 1 17.650750 6.788750 71.960750
8052 1 17.650750 9.504250 74.676250
8053 1 20.366250 6.788750 74.676250
8054 1 20.366250 9.504250 71.960750
8055 1 16.293000 5.431000 76.034000
8056 1 16.293000 8.146500 78.749500
8057 1 19.008500 5.431000 78.749500
8058 1 19.008500 8.146500 76.034000
8059 1 17.650750 6.788750 77.391750
8060 1 17.650750 9.504250 80.107250
8061 1 20.366250 6.788750 80.107250
8062 1 20.366250 9.504250 77.391750
8063 1 16.293000 5.431000 81.465000
8064 1 16.293000 8.146500 84.180500
8065 1 19.008500 5.431000 84.180500
8066 1 19.008500 8.146500 81.465000
8067 1 17.650750 6.788750 82.822750
8068 1 17.650750 9.504250 85.538250
8069 1 20.366250 6.788750 85.538250
8070 1 20.366250 9.504250 82.822750
8071 1 16.293000 8.146500 111.335500
8072 1 19.008500 5.431000 111.335500
8073 1 17.650750 6.788750 109.977750
8074 1 17.650750 9.504250 112.693250
8075 1 20.366250 6.788750 112.693250
8076 1 20.366250 9.504250 109.977750
8077 1 16.293000 5.431000 114.051000
8078 1 16.293000 8.146500 116.766500
8079 1 19.008500 5.431000 116.766500
8080 1 19.008500 8.146500 114.051000
8081 1 17.650750 6.788750 115.408750
8082 1 17.650750 9.504250 118.124250
8083 1 20.366250 6.788750 118.124250
8084 1 20.366250 9.504250 115.408750
8085 1 16.293000 5.431000 119.482000
8086 1 16.293000 8.146500 122.197500
8087 1 19.008500 5.431000 122.197500
8088 1 19.008500 8.146500 119.482000
8089 1 17.650750 6.788750 120.839750
8090 1 17.650750 9.504250 123.555250
8091 1 20.366250 6.788750 123.555250
8092 1 20.366250 9.504250 120.839750
8093 1 16.293000 5.431000 124.913000
8094 1 16.293000 8.146500 127.628500
8095 1 19.008500 5.431000 127.628500
8096 1 19.008500 8.146500 124.913000
8097 1 17.650750 6.788750 126.270750
8098 1 17.650750 9.504250 128.986250
8099 1 20.366250 6.788750 128.986250
8100 1 20.366250 9.504250 126.270750
8101 1 16.293000 8.146500 154.783500
8102 1 19.008500 5.431000 154.783500
8103 1 17.650750 6.788750 153.425750
8104 1 17.650750 9.504250 156.141250
8105 1 20.366250 6.788750 156.141250
8106 1 20.366250 9.504250 153.425750
8107 1 16.293000 5.431000 157.499000
8108 1 16.293000 8.146500 160.214500
8109 1 19.008500 5.431000 160.214500
8110 1 19.008500 8.146500 157.499000
8111 1 17.650750 6.788750 158.856750
8112 1 17.650750 9.504250 161.572250
8113 1 20.366250 6.788750 161.572250
8114 1 20.366250 9.504250 158.856750
8115 1 16.293000 5.431000 162.930000
8116 1 16.293000 8.146500 165.645500
8117 1 19.008500 5.431000 165.645500
8118 1 19.008500 8.146500 162.930000
8119 1 17.650750 6.788750 164.287750
8120 1 17.650750 9.504250 167.003250
8121 1 20.366250 6.788750 167.003250
8122 1 20.366250 9.504250 164.287750
8123 1 16.293000 5.431000 168.361000
8124 1 16.293000 8.146500 171.076500
8125 1 19.008500 5.431000 171.076500
8126 1 19.008500 8.146500 168.361000
8127 1 17.650750 6.788750 169.718750
8128 1 17.650750 9.504250 172.434250
8129 1 20.366250 6.788750 172.434250
8130 1 20.366250 9.504250 169.718750
8131 1 16.293000 8.146500 198.231500
8132 1 19.008500 5.431000 198.231500
8133 1 17.650750 6.788750 196.873750
8134 1 17.650750 9.504250 199.589250
8135 1 20.366250 6.788750 199.589250
8136 1 20.366250 9.504250 196.873750
8137 1 16.293000 5.431000 200.947000
8138 1 16.293000 8.146500 203.662500
8139 1 19.008500 5.431000 203.662500
8140 1 19.008500 8.146500 200.947000
8141 1 17.650750 6.788750 202.304750
8142 1 17.650750 9.504250 205.020250
8143 1 20.366250 6.788750 205.020250
8144 1 20.366250 9.504250 202.304750
8145 1 16.293000 5.431000 206.378000
8146 1 16.293000 8.146500 209.093500
8147 1 19.008500 5.431000 209.093500
8148 1 19.008500 8.146500 206.378000
8149 1 17.650750 6.788750 207.735750
8150 1 17.650750 9.504250 210.451250
8151 1 20.366250 6.788750 210.451250
8152 1 20.366250 9.504250 207.735750
8153 1 16.293000 5.431000 211.809000
8154 1 16.293000 8.146500 214.524500
8155 1 19.008500 5.431000 214.524500
8156 1 19.008500 8.146500 211.809000
8157 1 17.650750 6.788750 213.166750
8158 1 17.650750 9.504250 215.882250
8159 1 20.366250 6.788750 215.882250
8160 1 20.366250 9.504250 213.166750
8161 1 16.293000 8.146500 241.679500
8162 1 19.008500 5.431000 241.679500
8163 1 17.650750 6.788750 240.321750
8164 1 17.650750 9.504250 243.037250
8165 1 20.366250 6.788750 243.037250
8166 1 20.366250 9.504250 240.321750
8167 1 16.293000 5.431000 244.395000
8168 1 16.293000 8.146500 247.110500
8169 1 19.008500 5.431000 247.110500
8170 1 19.008500 8.146500 244.395000
8171 1 17.650750 6.788750 245.752750
8172 1 17.650750 9.504250 248.468250
8173 1 20.366250 6.788750 248.468250
8174 1 20.366250 9.504250 245.752750
8175 1 16.293000 5.431000 249.826000
8176 1 16.293000 8.146500 252.541500
8177 1 19.008500 5.431000 252.541500
8178 1 19.008500 8.146500 249.826000
8179 1 17.650750 6.788750 251.183750
8180 1 17.650750 9.504250 253.899250
8181 1 20.366250 6.788750 253.899250
8182 1 20.366250 9.504250 251.183750
8183 1 16.293000 5.431000 255.257000
8184 1 16.293000 8.146500 257.972500
8185 1 19.008500 5.431000 257.972500
8186 1 19.008500 8.146500 255.257000
8187 1 17.650750 6.788750 256.614750
8188 1 17.650750 9.504250 259.330250
8189 1 20.366250 6.788750 259.330250
8190 1 20.366250 9.504250 256.614750
8191 1 16.293000 13.577500 2.715500
8192 1 19.008500 13.577500 0.000000
8193 1 17.650750 12.219750 1.357750
8194 1 17.650750 14.935250 4.073250
8195 1 20.366250 12.219750 4.073250
8196 1 20.366250 14.935250 1.357750
8197 1 16.293000 13.577500 8.146500
8198 1 19.008500 13.577500 5.431000
8199 1 17.650750 12.219750 6.788750
8200 1 17.650750 14.935250 9.504250
8201 1 20.366250 12.219750 9.504250
8202 1 20.366250 14.935250 6.788750
8203 1 16.293000 13.577500 13.577500
8204 1 19.008500 13.577500 10.862000
8205 1 17.650750 12.219750 12.219750
8206 1 17.650750 14.935250 14.935250
8207 1 20.366250 12.219750 14.935250
8208 1 20.366250 14.935250 12.219750
8209 1 16.293000 13.577500 19.008500
8210 1 19.008500 13.577500 16.293000
8211 1 17.650750 12.219750 17.650750
8212 1 17.650750 14.935250 20.366250
8213 1 20.366250 12.219750 20.366250
8214 1 20.366250 14.935250 17.650750
8215 1 16.293000 13.577500 24.439500
8216 1 19.008500 10.862000 24.439500
8217 1 19.008500 13.577500 21.724000
8218 1 17.650750 12.219750 23.081750
8219 1 17.650750 14.935250 25.797250
8220 1 20.366250 12.219750 25.797250
8221 1 20.366250 14.935250 23.081750
8222 1 16.293000 10.862000 27.155000
8223 1 16.293000 13.577500 29.870500
8224 1 19.008500 10.862000 29.870500
8225 1 19.008500 13.577500 27.155000
8226 1 17.650750 12.219750 28.512750
8227 1 17.650750 14.935250 31.228250
8228 1 20.366250 12.219750 31.228250
8229 1 20.366250 14.935250 28.512750
8230 1 16.293000 10.862000 32.586000
8231 1 16.293000 13.577500 35.301500
8232 1 19.008500 10.862000 35.301500
8233 1 19.008500 13.577500 32.586000
8234 1 17.650750 12.219750 33.943750
8235 1 17.650750 14.935250 36.659250
8236 1 20.366250 12.219750 36.659250
8237 1 20.366250 14.935250 33.943750
8238 1 16.293000 10.862000 38.017000
8239 1 16.293000 13.577500 40.732500
8240 1 19.008500 10.862000 40.732500
8241 1 19.008500 13.577500 38.017000
8242 1 17.650750 12.219750 39.374750
8243 1 17.650750 14.935250 42.090250
8244 1 20.366250 12.219750 42.090250
8245 1 20.366250 14.935250 39.374750
8246 1 16.293000 13.577500 46.163500
8247 1 19.008500 13.577500 43.448000
8248 1 17.650750 12.219750 44.805750
8249 1 17.650750 14.935250 47.521250
8250 1 20.366250 12.219750 47.521250
8251 1 20.366250 14.935250 44.805750
8252 1 16.293000 13.577500 51.594500
8253 1 19.008500 13.577500 48.879000
8254 1 17.650750 12.219750 50.236750
8255 1 17.650750 14.935250 52.952250
8256 1 20.366250 12.219750 52.952250
8257 1 20.366250 14.935250 50.236750
8258 1 16.293000 13.577500 57.025500
8259 1 19.008500 13.577500 54.310000
8260 1 17.650750 12.219750 55.667750
8261 1 17.650750 14.935250 58.383250
8262 1 20.366250 12.219750 58.383250
8263 1 20.366250 14.935250 55.667750
8264 1 16.293000 13.577500 62.456500
8265 1 19.008500 13.577500 59.741000
8266 1 17.650750 12.219750 61.098750
8267 1 17.650750 14.935250 63.814250
8268 1 20.366250 12.219750 63.814250
8269 1 20.366250 14.935250 61.098750
8270 1 16.293000 13.577500 67.887500
8271 1 19.008500 10.862000 67.887500
8272 1 19.008500 13.577500 65.172000
8273 1 17.650750 12.219750 66.529750
8274 1 17.650750 14.935250 69.245250
8275 1 20.366250 12.219750 69.245250
8276 1 20.366250 14.935250 66.529750
8277 1 16.293000 10.862000 70.603000
8278 1 16.293000 13.577500 73.318500
8279 1 19.008500 10.862000 73.318500
8280 1 19.008500 13.577500 70.603000
8281 1 17.650750 12.219750 71.960750
8282 1 17.650750 14.935250 74.676250
8283 1 20.366250 12.219750 74.676250
8284 1 20.366250 14.935250 71.960750
8285 1 16.293000 10.862000 76.034000
8286 1 16.293000 13.577500 78.749500
8287 1 19.008500 10.862000 78.749500
8288 1 19.008500 13.577500 76.034000
8289 1 17.650750 12.219750 77.391750
8290 1 17.650750 14.935250 80.107250
8291 1 20.366250 12.219750 80.107250
8292 1 20.366250 14.935250 77.391750
8293 1 16.293000 10.862000 81.465000
8294 1 16.293000 13.577500 84.180500
8295 1 19.008500 10.862000 84.180500
8296 1 19.008500 13.577500 81.465000
8297 1 17.650750 12.219750 82.822750
8298 1 17.650750 14.935250 85.538250
8299 1 20.366250 12.219750 85.538250
8300 1 20.366250 14.935250 82.822750
8301 1 16.293000 13.577500 89.611500
8302 1 19.008500 13.577500 86.896000
8303 1 17.650750 12.219750 88.253750
8304 1 17.650750 14.935250 90.969250
8305 1 20.366250 12.219750 90.969250
8306 1 20.366250 14.935250 88.253750
8307 1 16.293000 13.577500 95.042500
8308 1 19.008500 13.577500 92.327000
8309 1 17.650750 12.219750 93.684750
8310 1 17.650750 14.935250 96.400250
8311 1 20.366250 12.219750 96.400250
8312 1 20.366250 14.935250 93.684750
8313 1 16.293000 13.577500 100.473500
8314 1 19.008500 13.577500 97.758000
8315 1 17.650750 12.219750 99.115750
8316 1 17.650750 14.935250 101.831250
8317 1 20.366250 12.219750 101.831250
8318 1 20.366250 14.935250 99.115750
8319 1 16.293000 13.577500 105.904500
8320 1 19.008500 13.577500 103.189000
8321 1 17.650750 12.219750 104.546750
8322 1 17.650750 14.935250 107.262250
8323 1 20.366250 12.219750 107.262250
8324 1 20.366250 14.935250 104.546750
8325 1 16.293000 13.577500 111.335500
8326 1 19.008500 10.862000 111.335500
8327 1 19.008500 13.577500 108.620000
8328 1 17.650750 12.219750 109.977750
8329 1 17.650750 14.935250 112.693250
8330 1 20.366250 12.219750 112.693250
8331 1 20.366250 14.935250 109.977750
8332 1 16.293000 10.862000 114.051000
8333 1 16.293000 13.577500 116.766500
8334 1 19.008500 10.862000 116.766500
8335 1 19.008500 13.577500 114.051000
8336 1 17.650750 12.219750 115.408750
8337 1 17.650750 14.935250 118.124250
8338 1 20.366250 12.219750 118.124250
8339 1 20.366250 14.935250 115.408750
8340 1 16.293000 10.862000 119.482000
8341 1 16.293000 13.577500 122.197500
8342 1 19.008500 10.862000 122.197500
8343 1 19.008500 13.577500 119.482000
8344 1 17.650750 12.219750 120.839750
8345 1 17.650750 14.935250 123.555250
8346 1 20.366250 12.219750 123.555250
8347 1 20.366250 14.935250 120.839750
8348 1 16.293000 10.862000 124.913000
8349 1 16.293000 13.577500 127.628500
8350 1 19.008500 10.862000 127.628500
8351 1 19.008500 13.577500 124.913000
8352 1 17.650750 12.219750 126.270750
8353 1 17.650750 14.935250 128.986250
8354 1 20.366250 12.219750 128.986250
8355 1 20.366250 14.935250 126.270750
8356 1 16.293000 13.577500 133.059500
8357 1 19.008500 13.577500 130.344000
8358 1 17.650750 12.219750 131.701750
8359 1 17.650750 14.935250 134.417250
8360 1 20.366250 12.219750 134.417250
8361 1 20.366250 14.935250 131.701750
8362 1 16.293000 13.577500 138.490500
8363 1 19.008500 13.577500 135.775000
8364 1 17.650750 12.219750 137.132750
8365 1 17.650750 14.935250 139.848250
8366 1 20.366250 12.219750 139.848250
8367 1 20.366250 14.935250 137.132750
8368 1 16.293000 13.577500 143.921500
8369 1 19.008500 13.577500 141.206000
8370 1 17.650750 12.219750 142.563750
8371 1 17.650750 14.935250 145.279250
8372 1 20.366250 12.219750 145.279250
8373 1 20.366250 14.935250 142.563750
8374 1 16.293000 13.577500 149.352500
8375 1 19.008500 13.577500 146.637000
8376 1 17.650750 12.219750 147.994750
8377 1 17.650750 14.935250 150.710250
8378 1 20.366250 12.219750 150.710250
8379 1 20.366250 14.935250 147.994750
8380 1 16.293000 13.577500 154.783500
8381 1 19.008500 10.862000 154.783500
8382 1 19.008500 13.577500 152.068000
8383 1 17.650750 12.219750 153.425750
8384 1 17.650750 14.935250 156.141250
8385 1 20.366250 12.219750 156.141250
8386 1 20.366250 14.935250 153.425750
8387 1 16.293000 10.862000 157.499000
8388 1 16.293000 13.577500 160.214500
8389 1 19.008500 10.862000 160.214500
8390 1 19.008500 13.577500 157.499000
8391 1 17.650750 12.219750 158.856750
8392 1 17.650750 14.935250 161.572250
8393 1 20.366250 12.219750 161.572250
8394 1 20.366250 14.935250 158.856750
8395 1 16.293000 10.862000 162.930000
8396 1 16.293000 13.577500 165.645500
8397 1 19.008500 10.862000 165.645500
8398 1 19.008500 13.577500 162.930000
8399 1 17.650750 12.219750 164.287750
8400 1 17.650750 14.935250 167.003250
8401 1 20.366250 12.219750 167.003250
8402 1 20.366250 14.935250 164.287750
8403 1 16.293000 10.862000 168.361000
8404 1 16.293000 13.577500 171.076500
8405 1 19.008500 10.862000 171.076500
8406 1 19.008500 13.577500 168.361000
8407 1 17.650750 12.219750 169.718750
8408 1 17.650750 14.935250 172.434250
8409 1 20.366250 12.219750 172.434250
8410 1 20.366250 14.935250 169.718750
8411 1 16.293000 13.577500 176.507500
8412 1 19.008500 13.577500 173.792000
8413 1 17.650750 12.219750 175.149750
8414 1 17.650750 14.935250 177.865250
8415 1 20.366250 12.219750 177.865250
8416 1 20.366250 14.935250 175.149750
8417 1 16.293000 13.577500 181.938500
8418 1 19.008500 13.577500 179.223000
8419 1 17.650750 12.219750 180.580750
8420 1 17.650750 14.935250 183.296250
8421 1 20.366250 12.219750 183.296250
8422 1 20.366250 14.935250 180.580750
8423 1 16.293000 13.577500 187.369500
8424 1 19.008500 13.577500 184.654000
8425 1 17.650750 12.219750 186.011750
8426 1 17.650750 14.935250 188.727250
8427 1 20.366250 12.219750 188.727250
8428 1 20.366250 14.935250 186.011750
8429 1 16.293000 13.577500 192.800500
8430 1 19.008500 13.577500 190.085000
8431 1 17.650750 12.219750 191.442750
8432 1 17.650750 14.935250 194.158250
8433 1 20.366250 12.219750 194.158250
8434 1 20.366250 14.935250 191.442750
8435 1 16.293000 13.577500 198.231500
8436 1 19.008500 10.862000 198.231500
8437 1 19.008500 13.577500 195.516000
8438 1 17.650750 12.219750 196.873750
8439 1 17.650750 14.935250 199.589250
8440 1 20.366250 12.219750 199.589250
8441 1 20.366250 14.935250 196.873750
8442 1 16.293000 10.862000 200.947000
8443 1 16.293000 13.577500 203.662500
8444 1 19.008500 10.862000 203.662500
8445 1 19.008500 13.577500 200.947000
8446 1 17.650750 12.219750 202.304750
8447 1 17.650750 14.935250 205.020250
8448 1 20.366250 12.219750 205.020250
8449 1 20.366250 14.935250 202.304750
8450 1 16.293000 10.862000 206.378000
8451 1 16.293000 13.577500 209.093500
8452 1 19.008500 10.862000 209.093500
8453 1 19.008500 13.577500 206.378000
8454 1 17.650750 12.219750 207.735750
8455 1 17.650750 14.935250 210.451250
8456 1 20.366250 12.219750 210.451250
8457 1 20.366250 14.935250 207.735750
8458 1 16.293000 10.862000 211.809000
8459 1 16.293000 13.577500 214.524500
8460 1 19.008500 10.862000 214.524500
8461 1 19.008500 13.577500 211.809000
8462 1 17.650750 12.219750 213.166750
8463 1 17.650750 14.935250 215.882250
8464 1 20.366250 12.219750 215.882250
8465 1 20.366250 14.935250 213.166750
8466 1 16.293000 13.577500 219.955500
8467 1 19.008500 13.577500 217.240000
8468 1 17.650750 12.219750 218.597750
8469 1 17.650750 14.935250 221.313250
8470 1 20.366250 12.219750 221.313250
8471 1 20.366250 14.935250 218.597750
8472 1 16.293000 13.577500 225.386500
8473 1 19.008500 13.577500 222.671000
8474 1 17.650750 12.219750 224.028750
8475 1 17.650750 14.935250 226.744250
8476 1 20.366250 12.219750 226.744250
8477 1 20.366250 14.935250 224.028750
8478 1 16.293000 13.577500 230.817500
8479 1 19.008500 13.577500 228.102000
8480 1 17.650750 12.219750 229.459750
8481 1 17.650750 14.935250 232.175250
8482 1 20.366250 12.219750 232.175250
8483 1 20.366250 14.935250 229.459750
8484 1 16.293000 13.577500 236.248500
8485 1 19.008500 13.577500 233.533000
8486 1 17.650750 12.219750 234.890750
8487 1 17.650750 14.935250 237.606250
8488 1 20.366250 12.219750 237.606250
8489 1 20.366250 14.935250 234.890750
8490 1 16.293000 13.577500 241.679500
8491 1 19.008500 10.862000 241.679500
8492 1 19.008500 13.577500 238.964000
8493 1 17.650750 12.219750 240.321750
8494 1 17.650750 14.935250 243.037250
8495 1 20.366250 12.219750 243.037250
8496 1 20.366250 14.935250 240.321750
8497 1 16.293000 10.862000 244.395000
8498 1 16.293000 13.577500 247.110500
8499 1 19.008500 10.862000 247.110500
8500 1 19.008500 13.577500 244.395000
8501 1 17.650750 12.219750 245.752750
8502 1 17.650750 14.935250 248.468250
8503 1 20.366250 12.219750 248.468250
8504 1 20.366250 14.935250 245.752750
8505 1 16.293000 10.862000 249.826000
8506 1 16.293000 13.577500 252.541500
8507 1 19.008500 10.862000 252.541500
8508 1 19.008500 13.577500 249.826000
8509 1 17.650750 12.219750 251.183750
8510 1 17.650750 14.935250 253.899250
8511 1 20.366250 12.219750 253.899250
8512 1 20.366250 14.935250 251.183750
8513 1 16.293000 10.862000 255.257000
8514 1 16.293000 13.577500 257.972500
8515 1 19.008500 10.862000 257.972500
8516 1 19.008500 13.577500 255.257000
8517 1 17.650750 12.219750 256.614750
8518 1 17.650750 14.935250 259.330250
8519 1 20.366250 12.219750 259.330250
8520 1 20.366250 14.935250 256.614750
8521 1 16.293000 16.293000 0.000000
8522 1 16.293000 19.008500 2.715500
8523 1 19.008500 16.293000 2.715500
8524 1 19.008500 19.008500 0.000000
8525 1 17.650750 17.650750 1.357750
8526 1 17.650750 20.366250 4.073250
8527 1 20.366250 17.650750 4.073250
8528 1 20.366250 20.366250 1.357750
8529 1 16.293000 16.293000 5.431000
8530 1 16.293000 19.008500 8.146500
8531 1 19.008500 16.293000 8.146500
8532 1 19.008500 19.008500 5.431000
8533 1 17.650750 17.650750 6.788750
8534 1 17.650750 20.366250 9.504250
8535 1 20.366250 17.650750 9.504250
8536 1 20.366250 20.366250 6.788750
8537 1 16.293000 16.293000 10.862000
8538 1 16.293000 19.008500 13.577500
8539 1 19.008500 16.293000 13.577500
8540 1 19.008500 19.008500 10.862000
8541 1 17.650750 17.650750 12.219750
8542 1 17.650750 20.366250 14.935250
8543 1 20.366250 17.650750 14.935250
8544 1 20.366250 20.366250 12.219750
8545 1 16.293000 16.293000 16.293000
8546 1 16.293000 19.008500 19.008500
8547 1 19.008500 16.293000 19.008500
8548 1 19.008500 19.008500 16.293000
8549 1 17.650750 17.650750 17.650750
8550 1 17.650750 20.366250 20.366250
8551 1 20.366250 17.650750 20.366250
8552 1 20.366250 20.366250 17.650750
8553 1 16.293000 19.008500 46.163500
8554 1 19.008500 16.293000 46.163500
8555 1 17.650750 17.650750 44.805750
8556 1 17.650750 20.366250 47.521250
8557 1 20.366250 17.650750 47.521250
8558 1 20.366250 20.366250 44.805750
8559 1 16.293000 16.293000 48.879000
8560 1 16.293000 19.008500 51.594500
8561 1 19.008500 16.293000 51.594500
8562 1 19.008500 19.008500 48.879000
8563 1 17.650750 17.650750 50.236750
8564 1 17.650750 20.366250 52.952250
8565 1 20.366250 17.650750 52.952250
8566 1 20.366250 20.366250 50.236750
8567 1 16.293000 16.293000 54.310000
8568 1 16.293000 19.008500 57.025500
8569 1 19.008500 16.293000 57.025500
8570 1 19.008500 19.008500 54.310000
8571 1 17.650750 17.650750 55.667750
8572 1 17.650750 20.366250 58.383250
8573 1 20.366250 17.650750 58.383250
8574 1 20.366250 20.366250 55.667750
8575 1 16.293000 16.293000 59.741000
8576 1 16.293000 19.008500 62.456500
8577 1 19.008500 16.293000 62.456500
8578 1 19.008500 19.008500 59.741000
8579 1 17.650750 17.650750 61.098750
8580 1 17.650750 20.366250 63.814250
8581 1 20.366250 17.650750 63.814250
8582 1 20.366250 20.366250 61.098750
8583 1 16.293000 19.008500 89.611500
8584 1 19.008500 16.293000 89.611500
8585 1 17.650750 17.650750 88.253750
8586 1 17.650750 20.366250 90.969250
8587 1 20.366250 17.650750 90.969250
8588 1 20.366250 20.366250 88.253750
8589 1 16.293000 16.293000 92.327000
8590 1 16.293000 19.008500 95.042500
8591 1 19.008500 16.293000 95.042500
8592 1 19.008500 19.008500 92.327000
8593 1 17.650750 17.650750 93.684750
8594 1 17.650750 20.366250 96.400250
8595 1 20.366250 17.650750 96.400250
8596 1 20.366250 20.366250 93.684750
8597 1 16.293000 16.293000 97.758000
8598 1 16.293000 19.008500 100.473500
8599 1 19.008500 16.293000 100.473500
8600 1 19.008500 19.008500 97.758000
8601 1 17.650750 17.650750 99.115750
8602 1 17.650750 20.366250 101.831250
8603 1 20.366250 17.650750 101.831250
8604 1 20.366250 20.366250 99.115750
8605 1 16.293000 16.293000 103.189000
8606 1 16.293000 19.008500 105.904500
8607 1 19.008500 16.293000 105.904500
8608 1 19.008500 19.008500 103.189000
8609 1 17.650750 17.650750 104.546750
8610 1 17.650750 20.366250 107.262250
8611 1 20.366250 17.650750 107.262250
8612 1 20.366250 20.366250 104.546750
8613 1 16.293000 19.008500 133.059500
8614 1 19.008500 16.293000 133.059500
8615 1 17.650750 17.650750 131.701750
8616 1 17.650750 20.366250 134.417250
8617 1 20.366250 17.650750 134.417250
8618 1 20.366250 20.366250 131.701750
8619 1 16.293000 16.293000 135.775000
8620 1 16.293000 19.008500 138.490500
8621 1 19.008500 16.293000 138.490500
8622 1 19.008500 19.008500 135.775000
8623 1 17.650750 17.650750 137.132750
8624 1 17.650750 20.366250 139.848250
8625 1 20.366250 17.650750 139.848250
8626 1 20.366250 20.366250 137.132750
8627 1 16.293000 16.293000 141.206000
8628 1 16.293000 19.008500 143.921500
8629 1 19.008500 16.293000 143.921500
8630 1 19.008500 19.008500 141.206000
8631 1 17.650750 17.650750 142.563750
8632 1 17.650750 20.366250 145.279250
8633 1 20.366250 17.650750 145.279250
8634 1 20.366250 20.366250 142.563750
8635 1 16.293000 16.293000 146.637000
8636 1 16.293000 19.008500 149.352500
8637 1 19.008500 16.293000 149.352500
8638 1 19.008500 19.008500 146.637000
8639 1 17.650750 17.650750 147.994750
8640 1 17.650750 20.366250 150.710250
8641 1 20.366250 17.650750 150.710250
8642 1 20.366250 20.366250 147.994750
8643 1 16.293000 19.008500 176.507500
8644 1 19.008500 16.293000 176.507500
8645 1 17.650750 17.650750 175.149750
8646 1 17.650750 20.366250 177.865250
8647 1 20.366250 17.650750 177.865250
8648 1 20.366250 20.366250 175.149750
8649 1 16.293000 16.293000 179.223000
8650 1 16.293000 19.008500 181.938500
8651 1 19.008500 16.293000 181.938500
8652 1 19.008500 19.008500 179.223000
8653 1 17.650750 17.650750 180.580750
8654 1 17.650750 20.366250 183.296250
8655 1 20.366250 17.650750 183.296250
8656 1 20.366250 20.366250 180.580750
8657 1 16.293000 16.293000 184.654000
8658 1 16.293000 19.008500 187.369500
8659 1 19.008500 16.293000 187.369500
8660 1 19.008500 19.008500 184.654000
8661 1 17.650750 17.650750 186.011750
8662 1 17.650750 20.366250 188.727250
8663 1 20.366250 17.650750 188.727250
8664 1 20.366250 20.366250 186.011750
8665 1 16.293000 16.293000 190.085000
8666 1 16.293000 19.008500 192.800500
8667 1 19.008500 16.293000 192.800500
8668 1 19.008500 19.008500 190.085000
8669 1 17.650750 17.650750 191.442750
8670 1 17.650750 20.366250 194.158250
8671 1 20.366250 17.650750 194.158250
8672 1 20.366250 20.366250 191.442750
8673 1 16.293000 19.008500 219.955500
8674 1 19.008500 16.293000 219.955500
8675 1 17.650750 17.650750 218.597750
8676 1 17.650750 20.366250 221.313250
8677 1 20.366250 17.650750 221.313250
8678 1 20.366250 20.366250 218.597750
8679 1 16.293000 16.293000 222.671000
8680 1 16.293000 19.008500 225.386500
8681 1 19.008500 16.293000 225.386500
8682 1 19.008500 19.008500 222.671000
8683 1 17.650750 17.650750 224.028750
8684 1 17.650750 20.366250 226.744250
8685 1 20.366250 17.650750 226.744250
8686 1 20.366250 20.366250 224.028750
8687 1 16.293000 16.293000 228.102000
8688 1 16.293000 19.008500 230.817500
8689 1 19.008500 16.293000 230.817500
8690 1 19.008500 19.008500 228.102000
8691 1 17.650750 17.650750 229.459750
8692 1 17.650750 20.366250 232.175250
8693 1 20.366250 17.650750 232.175250
8694 1 20.366250 20.366250 229.459750
8695 1 16.293000 16.293000 233.533000
8696 1 16.293000 19.008500 236.248500
8697 1 19.008500 16.293000 236.248500
8698 1 19.008500 19.008500 233.533000
8699 1 17.650750 17.650750 234.890750
8700 1 17.650750 20.366250 237.606250
8701 1 20.366250 17.650750 237.606250
8702 1 20.366250 20.366250 234.890750
8703 1 16.293000 21.724000 0.000000
8704 1 16.293000 24.439500 2.715500
8705 1 19.008500 21.724000 2.715500
8706 1 19.008500 24.439500 0.000000
8707 1 17.650750 23.081750 1.357750
8708 1 17.650750 25.797250 4.073250
8709 1 20.366250 23.081750 4.073250
8710 1 20.366250 25.797250 1.357750
8711 1 16.293000 21.724000 5.431000
8712 1 16.293000 24.439500 8.146500
8713 1 19.008500 21.724000 8.146500
8714 1 19.008500 24.439500 5.431000
8715 1 17.650750 23.081750 6.788750
8716 1 17.650750 25.797250 9.504250
8717 1 20.366250 23.081750 9.504250
8718 1 20.366250 25.797250 6.788750
8719 1 16.293000 21.724000 10.862000
8720 1 16.293000 24.439500 13.577500
8721 1 19.008500 21.724000 13.577500
8722 1 19.008500 24.439500 10.862000
8723 1 17.650750 23.081750 12.219750
8724 1 17.650750 25.797250 14.935250
8725 1 20.366250 23.081750 14.935250
8726 1 20.366250 25.797250 12.219750
8727 1 16.293000 21.724000 16.293000
8728 1 16.293000 24.439500 19.008500
8729 1 19.008500 21.724000 19.008500
8730 1 19.008500 24.439500 16.293000
8731 1 17.650750 23.081750 17.650750
8732 1 17.650750 25.797250 20.366250
8733 1 20.366250 23.081750 20.366250
8734 1 20.366250 25.797250 17.650750
8735 1 16.293000 24.439500 46.163500
8736 1 19.008500 21.724000 46.163500
8737 1 17.650750 23.081750 44.805750
8738 1 17.650750 25.797250 47.521250
8739 1 20.366250 23.081750 47.521250
8740 1 20.366250 25.797250 44.805750
8741 1 16.293000 21.724000 48.879000
8742 1 16.293000 24.439500 51.594500
8743 1 19.008500 21.724000 51.594500
8744 1 19.008500 24.439500 48.879000
8745 1 17.650750 23.081750 50.236750
8746 1 17.650750 25.797250 52.952250
8747 1 20.366250 23.081750 52.952250
8748 1 20.366250 25.797250 50.236750
8749 1 16.293000 21.724000 54.310000
8750 1 16.293000 24.439500 57.025500
8751 1 19.008500 21.724000 57.025500
8752 1 19.008500 24.439500 54.310000
8753 1 17.650750 23.081750 55.667750
8754 1 17.650750 25.797250 58.383250
8755 1 20.366250 23.081750 58.383250
8756 1 20.366250 25.797250 55.667750
8757 1 16.293000 21.724000 59.741000
8758 1 16.293000 24.439500 62.456500
8759 1 19.008500 21.724000 62.456500
8760 1 19.008500 24.439500 59.741000
8761 1 17.650750 23.081750 61.098750
8762 1 17.650750 25.797250 63.814250
8763 1 20.366250 23.081750 63.814250
8764 1 20.366250 25.797250 61.098750
8765 1 16.293000 24.439500 89.611500
8766 1 19.008500 21.724000 89.611500
8767 1 17.650750 23.081750 88.253750
8768 1 17.650750 25.797250 90.969250
8769 1 20.366250 23.081750 90.969250
8770 1 20.366250 25.797250 88.253750
8771 1 16.293000 21.724000 92.327000
8772 1 16.293000 24.439500 95.042500
8773 1 19.008500 21.724000 95.042500
8774 1 19.008500 24.439500 92.327000
8775 1 17.650750 23.081750 93.684750
8776 1 17.650750 25.797250 96.400250
8777 1 20.366250 23.081750 96.400250
8778 1 20.366250 25.797250 93.684750
8779 1 16.293000 21.724000 97.758000
8780 1 16.293000 24.439500 100.473500
8781 1 19.008500 21.724000 100.473500
8782 1 19.008500 24.439500 97.758000
8783 1 17.650750 23.081750 99.115750
8784 1 17.650750 25.797250 101.831250
8785 1 20.366250 23.081750 101.831250
8786 1 20.366250 25.797250 99.115750
8787 1 16.293000 21.724000 103.189000
8788 1 16.293000 24.439500 105.904500
8789 1 19.008500 21.724000 105.904500
8790 1 19.008500 24.439500 103.189000
8791 1 17.650750 23.081750 104.546750
8792 1 17.650750 25.797250 107.262250
8793 1 20.366250 23.081750 107.262250
8794 1 20.366250 25.797250 104.546750
8795 1 16.293000 24.439500 133.059500
8796 1 19.008500 21.724000 133.059500
8797 1 17.650750 23.081750 131.701750
8798 1 17.650750 25.797250 134.417250
8799 1 20.366250 23.081750 134.417250
8800 1 20.366250 25.797250 131.701750
8801 1 16.293000 21.724000 135.775000
8802 1 16.293000 24.439500 138.490500
8803 1 19.008500 21.724000 138.490500
8804 1 19.008500 24.439500 135.775000
8805 1 17.650750 23.081750 137.132750
8806 1 17.650750 25.797250 139.848250
8807 1 20.366250 23.081750 139.848250
8808 1 20.366250 25.797250 137.132750
8809 1 16.293000 21.724000 141.206000
8810 1 16.293000 24.439500 143.921500
8811 1 19.008500 21.724000 143.921500
8812 1 19.008500 24.439500 141.206000
8813 1 17.650750 23.081750 142.563750
8814 1 17.650750 25.797250 145.279250
8815 1 20.366250 23.081750 145.279250
8816 1 20.366250 25.797250 142.563750
8817 1 16.293000 21.724000 146.637000
8818 1 16.293000 24.439500 149.352500
8819 1 19.008500 21.724000 149.352500
8820 1 19.008500 24.439500 146.637000
8821 1 17.650750 23.081750 147.994750
8822 1 17.650750 25.797250 150.710250
8823 1 20.366250 23.081750 150.710250
8824 1 20.366250 25.797250 147.994750
8825 1 16.293000 24.439500 176.507500
8826 1 19.008500 21.724000 176.507500
8827 1 17.650750 23.081750 175.149750
8828 1 17.650750 25.797250 177.865250
8829 1 20.366250 23.081750 177.865250
8830 1 20.366250 25.797250 175.149750
8831 1 16.293000 21.724000 179.223000
8832 1 16.293000 24.439500 181.938500
8833 1 19.008500 21.724000 181.938500
8834 1 19.008500 24.439500 179.223000
8835 1 17.650750 23.081750 180.580750
8836 1 17.650750 25.797250 183.296250
8837 1 20.366250 23.081750 183.296250
8838 1 20.366250 25.797250 180.580750
8839 1 16.293000 21.724000 184.654000
8840 1 16.293000 24.439500 187.369500
8841 1 19.008500 21.724000 187.369500
8842 1 19.008500 24.439500 184.654000
8843 1 17.650750 23.081750 186.011750
8844 1 17.650750 25.797250 188.727250
8845 1 20.366250 23.081750 188.727250
8846 1 20.366250 25.797250 186.011750
8847 1 16.293000 21.724000 190.085000
8848 1 16.293000 24.439500 192.800500
8849 1 19.008500 21.724000 192.800500
8850 1 19.008500 24.439500 190.085000
8851 1 17.650750 23.081750 191.442750
8852 1 17.650750 25.797250 194.158250
8853 1 20.366250 23.081750 194.158250
8854 1 20.366250 25.797250 191.442750
8855 1 16.293000 24.439500 219.955500
8856 1 19.008500 21.724000 219.955500
8857 1 17.650750 23.081750 218.597750
8858 1 17.650750 25.797250 221.313250
8859 1 20.366250 23.081750 221.313250
8860 1 20.366250 25.797250 218.597750
8861 1 16.293000 21.724000 222.671000
8862 1 16.293000 24.439500 225.386500
8863 1 19.008500 21.724000 225.386500
8864 1 19.008500 24.439500 222.671000
8865 1 17.650750 23.081750 224.028750
8866 1 17.650750 25.797250 226.744250
8867 1 20.366250 23.081750 226.744250
8868 1 20.366250 25.797250 224.028750
8869 1 16.293000 21.724000 228.102000
8870 1 16.293000 24.439500 230.817500
8871 1 19.008500 21.724000 230.817500
8872 1 19.008500 24.439500 228.102000
8873 1 17.650750 23.081750 229.459750
8874 1 17.650750 25.797250 232.175250
8875 1 20.366250 23.081750 232.175250
8876 1 20.366250 25.797250 229.459750
8877 1 16.293000 21.724000 233.533000
8878 1 16.293000 24.439500 236.248500
8879 1 19.008500 21.724000 236.248500
8880 1 19.008500 24.439500 233.533000
8881 1 17.650750 23.081750 234.890750
8882 1 17.650750 25.797250 237.606250
8883 1 20.366250 23.081750 237.606250
8884 1 20.366250 25.797250 234.890750
8885 1 16.293000 27.155000 0.000000
8886 1 16.293000 29.870500 2.715500
8887 1 19.008500 27.155000 2.715500
8888 1 19.008500 29.870500 0.000000
8889 1 17.650750 28.512750 1.357750
8890 1 17.650750 31.228250 4.073250
8891 1 20.366250 28.512750 4.073250
8892 1 20.366250 31.228250 1.357750
8893 1 16.293000 27.155000 5.431000
8894 1 16.293000 29.870500 8.146500
8895 1 19.008500 27.155000 8.146500
8896 1 19.008500 29.870500 5.431000
8897 1 17.650750 28.512750 6.788750
8898 1 17.650750 31.228250 9.504250
8899 1 20.366250 28.512750 9.504250
8900 1 20.366250 31.228250 6.788750
8901 1 16.293000 27.155000 10.862000
8902 1 16.293000 29.870500 13.577500
8903 1 19.008500 27.155000 13.577500
8904 1 19.008500 29.870500 10.862000
8905 1 17.650750 28.512750 12.219750
8906 1 17.650750 31.228250 14.935250
8907 1 20.366250 28.512750 14.935250
8908 1 20.366250 31.228250 12.219750
8909 1 16.293000 27.155000 16.293000
8910 1 16.293000 29.870500 19.008500
8911 1 19.008500 27.155000 19.008500
8912 1 19.008500 29.870500 16.293000
8913 1 17.650750 28.512750 17.650750
8914 1 17.650750 31.228250 20.366250
8915 1 20.366250 28.512750 20.366250
8916 1 20.366250 31.228250 17.650750
8917 1 16.293000 29.870500 24.439500
8918 1 19.008500 29.870500 21.724000
8919 1 17.650750 28.512750 23.081750
8920 1 17.650750 31.228250 25.797250
8921 1 20.366250 28.512750 25.797250
8922 1 20.366250 31.228250 23.081750
8923 1 16.293000 29.870500 29.870500
8924 1 19.008500 29.870500 27.155000
8925 1 17.650750 28.512750 28.512750
8926 1 17.650750 31.228250 31.228250
8927 1 20.366250 28.512750 31.228250
8928 1 20.366250 31.228250 28.512750
8929 1 16.293000 29.870500 35.301500
8930 1 19.008500 29.870500 32.586000
8931 1 17.650750 28.512750 33.943750
8932 1 17.650750 31.228250 36.659250
8933 1 20.366250 28.512750 36.659250
8934 1 20.366250 31.228250 33.943750
8935 1 16.293000 29.870500 40.732500
8936 1 19.008500 29.870500 38.017000
8937 1 17.650750 28.512750 39.374750
8938 1 17.650750 31.228250 42.090250
8939 1 20.366250 28.512750 42.090250
8940 1 20.366250 31.228250 39.374750
8941 1 16.293000 29.870500 46.163500
8942 1 19.008500 27.155000 46.163500
8943 1 19.008500 29.870500 43.448000
8944 1 17.650750 28.512750 44.805750
8945 1 17.650750 31.228250 47.521250
8946 1 20.366250 28.512750 47.521250
8947 1 20.366250 31.228250 44.805750
8948 1 16.293000 27.155000 48.879000
8949 1 16.293000 29.870500 51.594500
8950 1 19.008500 27.155000 51.594500
8951 1 19.008500 29.870500 48.879000
8952 1 17.650750 28.512750 50.236750
8953 1 17.650750 31.228250 52.952250
8954 1 20.366250 28.512750 52.952250
8955 1 20.366250 31.228250 50.236750
8956 1 16.293000 27.155000 54.310000
8957 1 16.293000 29.870500 57.025500
8958 1 19.008500 27.155000 57.025500
8959 1 19.008500 29.870500 54.310000
8960 1 17.650750 28.512750 55.667750
8961 1 17.650750 31.228250 58.383250
8962 1 20.366250 28.512750 58.383250
8963 1 20.366250 31.228250 55.667750
8964 1 16.293000 27.155000 59.741000
8965 1 16.293000 29.870500 62.456500
8966 1 19.008500 27.155000 62.456500
8967 1 19.008500 29.870500 59.741000
8968 1 17.650750 28.512750 61.098750
8969 1 17.650750 31.228250 63.814250
8970 1 20.366250 28.512750 63.814250
8971 1 20.366250 31.228250 61.098750
8972 1 16.293000 29.870500 67.887500
8973 1 19.008500 29.870500 65.172000
8974 1 17.650750 28.512750 66.529750
8975 1 17.650750 31.228250 69.245250
8976 1 20.366250 28.512750 69.245250
8977 1 20.366250 31.228250 66.529750
8978 1 16.293000 29.870500 73.318500
8979 1 19.008500 29.870500 70.603000
8980 1 17.650750 28.512750 71.960750
8981 1 17.650750 31.228250 74.676250
8982 1 20.366250 28.512750 74.676250
8983 1 20.366250 31.228250 71.960750
8984 1 16.293000 29.870500 78.749500
8985 1 19.008500 29.870500 76.034000
8986 1 17.650750 28.512750 77.391750
8987 1 17.650750 31.228250 80.107250
8988 1 20.366250 28.512750 80.107250
8989 1 20.366250 31.228250 77.391750
8990 1 16.293000 29.870500 84.180500
8991 1 19.008500 29.870500 81.465000
8992 1 17.650750 28.512750 82.822750
8993 1 17.650750 31.228250 85.538250
8994 1 20.366250 28.512750 85.538250
8995 1 20.366250 31.228250 82.822750
8996 1 16.293000 29.870500 89.611500
8997 1 19.008500 27.155000 89.611500
8998 1 19.008500 29.870500 86.896000
8999 1 17.650750 28.512750 88.253750
9000 1 17.650750 31.228250 90.969250
9001 1 20.366250 28.512750 90.969250
9002 1 20.366250 31.228250 88.253750
9003 1 16.293000 27.155000 92.327000
9004 1 16.293000 29.870500 95.042500
9005 1 19.008500 27.155000 95.042500
9006 1 19.008500 29.870500 92.327000
9007 1 17.650750 28.512750 93.684750
9008 1 17.650750 31.228250 96.400250
9009 1 20.366250 28.512750 96.400250
9010 1 20.366250 31.228250 93.684750
9011 1 16.293000 27.155000 97.758000
9012 1 16.293000 29.870500 100.473500
9013 1 19.008500 27.155000 100.473500
9014 1 19.008500 29.870500 97.758000
9015 1 17.650750 28.512750 99.115750
9016 1 17.650750 31.228250 101.831250
9017 1 20.366250 28.512750 101.831250
9018 1 20.366250 31.228250 99.115750
9019 1 16.293000 27.155000 103.189000
9020 1 16.293000 29.870500 105.904500
9021 1 19.008500 27.155000 105.904500
9022 1 19.008500 29.870500 103.189000
9023 1 17.650750 28.512750 104.546750
9024 1 17.650750 31.228250 107.262250
9025 1 20.366250 28.512750 107.262250
9026 1 20.366250 31.228250 104.546750
9027 1 16.293000 29.870500 111.335500
9028 1 19.008500 29.870500 108.620000
9029 1 17.650750 28.512750 109.977750
9030 1 17.650750 31.228250 112.693250
9031 1 20.366250 28.512750 112.693250
9032 1 20.366250 31.228250 109.977750
9033 1 16.293000 29.870500 116.766500
9034 1 19.008500 29.870500 114.051000
9035 1 17.650750 28.512750 115.408750
9036 1 17.650750 31.228250 118.124250
9037 1 20.366250 28.512750 118.124250
9038 1 20.366250 31.228250 115.408750
9039 1 16.293000 29.870500 122.197500
9040 1 19.008500 29.870500 119.482000
9041 1 17.650750 28.512750 120.839750
9042 1 17.650750 31.228250 123.555250
9043 1 20.366250 28.512750 123.555250
9044 1 20.366250 31.228250 120.839750
9045 1 16.293000 29.870500 127.628500
9046 1 19.008500 29.870500 124.913000
9047 1 17.650750 28.512750 126.270750
9048 1 17.650750 31.228250 128.986250
9049 1 20.366250 28.512750 128.986250
9050 1 20.366250 31.228250 126.270750
9051 1 16.293000 29.870500 133.059500
9052 1 19.008500 27.155000 133.059500
9053 1 19.008500 29.870500 130.344000
9054 1 17.650750 28.512750 131.701750
9055 1 17.650750 31.228250 134.417250
9056 1 20.366250 28.512750 134.417250
9057 1 20.366250 31.228250 131.701750
9058 1 16.293000 27.155000 135.775000
9059 1 16.293000 29.870500 138.490500
9060 1 19.008500 27.155000 138.490500
9061 1 19.008500 29.870500 135.775000
9062 1 17.650750 28.512750 137.132750
9063 1 17.650750 31.228250 139.848250
9064 1 20.366250 28.512750 139.848250
9065 1 20.366250 31.228250 137.132750
9066 1 16.293000 27.155000 141.206000
9067 1 16.293000 29.870500 143.921500
9068 1 19.008500 27.155000 143.921500
9069 1 19.008500 29.870500 141.206000
9070 1 17.650750 28.512750 142.563750
9071 1 17.650750 31.228250 145.279250
9072 1 20.366250 28.512750 145.279250
9073 1 20.366250 31.228250 142.563750
9074 1 16.293000 27.155000 146.637000
9075 1 16.293000 29.870500 149.352500
9076 1 19.008500 27.155000 149.352500
9077 1 19.008500 29.870500 146.637000
9078 1 17.650750 28.512750 147.994750
9079 1 17.650750 31.228250 150.710250
9080 1 20.366250 28.512750 150.710250
9081 1 20.366250 31.228250 147.994750
9082 1 16.293000 29.870500 154.783500
9083 1 19.008500 29.870500 152.068000
9084 1 17.650750 28.512750 153.425750
9085 1 17.650750 31.228250 156.141250
9086 1 20.366250 28.512750 156.141250
9087 1 20.366250 31.228250 153.425750
9088 1 16.293000 29.870500 160.214500
9089 1 19.008500 29.870500 157.499000
9090 1 17.650750 28.512750 158.856750
9091 1 17.650750 31.228250 161.572250
9092 1 20.366250 28.512750 161.572250
9093 1 20.366250 31.228250 158.856750
9094 1 16.293000 29.870500 165.645500
9095 1 19.008500 29.870500 162.930000
9096 1 17.650750 28.512750 164.287750
9097 1 17.650750 31.228250 167.003250
9098 1 20.366250 28.512750 167.003250
9099 1 20.366250 31.228250 164.287750
9100 1 16.293000 29.870500 171.076500
9101 1 19.008500 29.870500 168.361000
9102 1 17.650750 28.512750 169.718750
9103 1 17.650750 31.228250 172.434250
9104 1 20.366250 28.512750 172.434250
9105 1 20.366250 31.228250 169.718750
9106 1 16.293000 29.870500 176.507500
9107 1 19.008500 27.155000 176.507500
9108 1 19.008500 29.870500 173.792000
9109 1 17.650750 28.512750 175.149750
9110 1 17.650750 31.228250 177.865250
9111 1 20.366250 28.512750 177.865250
9112 1 20.366250 31.228250 175.149750
9113 1 16.293000 27.155000 179.223000
9114 1 16.293000 29.870500 181.938500
9115 1 19.008500 27.155000 181.938500
9116 1 19.008500 29.870500 179.223000
9117 1 17.650750 28.512750 180.580750
9118 1 17.650750 31.228250 183.296250
9119 1 20.366250 28.512750 183.296250
9120 1 20.366250 31.228250 180.580750
9121 1 16.293000 27.155000 184.654000
9122 1 16.293000 29.870500 187.369500
9123 1 19.008500 27.155000 187.369500
9124 1 19.008500 29.870500 184.654000
9125 1 17.650750 28.512750 186.011750
9126 1 17.650750 31.228250 188.727250
9127 1 20.366250 28.512750 188.727250
9128 1 20.366250 31.228250 186.011750
9129 1 16.293000 27.155000 190.085000
9130 1 16.293000 29.870500 192.800500
9131 1 19.008500 27.155000 192.800500
9132 1 19.008500 29.870500 190.085000
9133 1 17.650750 28.512750 191.442750
9134 1 17.650750 31.228250 194.158250
9135 1 20.366250 28.512750 194.158250
9136 1 20.366250 31.228250 191.442750
9137 1 16.293000 29.870500 198.231500
9138 1 19.008500 29.870500 195.516000
9139 1 17.650750 28.512750 196.873750
9140 1 17.650750 31.228250 199.589250
9141 1 20.366250 28.512750 199.589250
9142 1 20.366250 31.228250 196.873750
9143 1 16.293000 29.870500 203.662500
9144 1 19.008500 29.870500 200.947000
9145 1 17.650750 28.512750 202.304750
9146 1 17.650750 31.228250 205.020250
9147 1 20.366250 28.512750 205.020250
9148 1 20.366250 31.228250 202.304750
9149 1 16.293000 29.870500 209.093500
9150 1 19.008500 29.870500 206.378000
9151 1 17.650750 28.512750 207.735750
9152 1 17.650750 31.228250 210.451250
9153 1 20.366250 28.512750 210.451250
9154 1 20.366250 31.228250 207.735750
9155 1 16.293000 29.870500 214.524500
9156 1 19.008500 29.870500 211.809000
9157 1 17.650750 28.512750 213.166750
9158 1 17.650750 31.228250 215.882250
9159 1 20.366250 28.512750 215.882250
9160 1 20.366250 31.228250 213.166750
9161 1 16.293000 29.870500 219.955500
9162 1 19.008500 27.155000 219.955500
9163 1 19.008500 29.870500 217.240000
9164 1 17.650750 28.512750 218.597750
9165 1 17.650750 31.228250 221.313250
9166 1 20.366250 28.512750 221.313250
9167 1 20.366250 31.228250 218.597750
9168 1 16.293000 27.155000 222.671000
9169 1 16.293000 29.870500 225.386500
9170 1 19.008500 27.155000 225.386500
9171 1 19.008500 29.870500 222.671000
9172 1 17.650750 28.512750 224.028750
9173 1 17.650750 31.228250 226.744250
9174 1 20.366250 28.512750 226.744250
9175 1 20.366250 31.228250 224.028750
9176 1 16.293000 27.155000 228.102000
9177 1 16.293000 29.870500 230.817500
9178 1 19.008500 27.155000 230.817500
9179 1 19.008500 29.870500 228.102000
9180 1 17.650750 28.512750 229.459750
9181 1 17.650750 31.228250 232.175250
9182 1 20.366250 28.512750 232.175250
9183 1 20.366250 31.228250 229.459750
9184 1 16.293000 27.155000 233.533000
9185 1 16.293000 29.870500 236.248500
9186 1 19.008500 27.155000 236.248500
9187 1 19.008500 29.870500 233.533000
9188 1 17.650750 28.512750 234.890750
9189 1 17.650750 31.228250 237.606250
9190 1 20.366250 28.512750 237.606250
9191 1 20.366250 31.228250 234.890750
9192 1 16.293000 29.870500 241.679500
9193 1 19.008500 29.870500 238.964000
9194 1 17.650750 28.512750 240.321750
9195 1 17.650750 31.228250 243.037250
9196 1 20.366250 28.512750 243.037250
9197 1 20.366250 31.228250 240.321750
9198 1 16.293000 29.870500 247.110500
9199 1 19.008500 29.870500 244.395000
9200 1 17.650750 28.512750 245.752750
9201 1 17.650750 31.228250 248.468250
9202 1 20.366250 28.512750 248.468250
9203 1 20.366250 31.228250 245.752750
9204 1 16.293000 29.870500 252.541500
9205 1 19.008500 29.870500 249.826000
9206 1 17.650750 28.512750 251.183750
9207 1 17.650750 31.228250 253.899250
9208 1 20.366250 28.512750 253.899250
9209 1 20.366250 31.228250 251.183750
9210 1 16.293000 29.870500 257.972500
9211 1 19.008500 29.870500 255.257000
9212 1 17.650750 28.512750 256.614750
9213 1 17.650750 31.228250 259.330250
9214 1 20.366250 28.512750 259.330250
9215 1 20.366250 31.228250 256.614750
9216 1 16.293000 32.586000 0.000000
9217 1 16.293000 35.301500 2.715500
9218 1 19.008500 32.586000 2.715500
9219 1 19.008500 35.301500 0.000000
9220 1 17.650750 33.943750 1.357750
9221 1 17.650750 36.659250 4.073250
9222 1 20.366250 33.943750 4.073250
9223 1 20.366250 36.659250 1.357750
9224 1 16.293000 32.586000 5.431000
9225 1 16.293000 35.301500 8.146500
9226 1 19.008500 32.586000 8.146500
9227 1 19.008500 35.301500 5.431000
9228 1 17.650750 33.943750 6.788750
9229 1 17.650750 36.659250 9.504250
9230 1 20.366250 33.943750 9.504250
9231 1 20.366250 36.659250 6.788750
9232 1 16.293000 32.586000 10.862000
9233 1 16.293000 35.301500 13.577500
9234 1 19.008500 32.586000 13.577500
9235 1 19.008500 35.301500 10.862000
9236 1 17.650750 33.943750 12.219750
9237 1 17.650750 36.659250 14.935250
9238 1 20.366250 33.943750 14.935250
9239 1 20.366250 36.659250 12.219750
9240 1 16.293000 32.586000 16.293000
9241 1 16.293000 35.301500 19.008500
9242 1 19.008500 32.586000 19.008500
9243 1 19.008500 35.301500 16.293000
9244 1 17.650750 33.943750 17.650750
9245 1 17.650750 36.659250 20.366250
9246 1 20.366250 33.943750 20.366250
9247 1 20.366250 36.659250 17.650750
9248 1 16.293000 32.586000 21.724000
9249 1 16.293000 35.301500 24.439500
9250 1 19.008500 32.586000 24.439500
9251 1 19.008500 35.301500 21.724000
9252 1 17.650750 33.943750 23.081750
9253 1 17.650750 36.659250 25.797250
9254 1 20.366250 33.943750 25.797250
9255 1 20.366250 36.659250 23.081750
9256 1 16.293000 32.586000 27.155000
9257 1 16.293000 35.301500 29.870500
9258 1 19.008500 32.586000 29.870500
9259 1 19.008500 35.301500 27.155000
9260 1 17.650750 33.943750 28.512750
9261 1 17.650750 36.659250 31.228250
9262 1 20.366250 33.943750 31.228250
9263 1 20.366250 36.659250 28.512750
9264 1 16.293000 32.586000 32.586000
9265 1 16.293000 35.301500 35.301500
9266 1 19.008500 32.586000 35.301500
9267 1 19.008500 35.301500 32.586000
9268 1 17.650750 33.943750 33.943750
9269 1 17.650750 36.659250 36.659250
9270 1 20.366250 33.943750 36.659250
9271 1 20.366250 36.659250 33.943750
9272 1 16.293000 32.586000 38.017000
9273 1 16.293000 35.301500 40.732500
9274 1 19.008500 32.586000 40.732500
9275 1 19.008500 35.301500 38.017000
9276 1 17.650750 33.943750 39.374750
9277 1 17.650750 36.659250 42.090250
9278 1 20.366250 33.943750 42.090250
9279 1 20.366250 36.659250 39.374750
9280 1 16.293000 32.586000 43.448000
9281 1 16.293000 35.301500 46.163500
9282 1 19.008500 32.586000 46.163500
9283 1 19.008500 35.301500 43.448000
9284 1 17.650750 33.943750 44.805750
9285 1 17.650750 36.659250 47.521250
9286 1 20.366250 33.943750 47.521250
9287 1 20.366250 36.659250 44.805750
9288 1 16.293000 32.586000 48.879000
9289 1 16.293000 35.301500 51.594500
9290 1 19.008500 32.586000 51.594500
9291 1 19.008500 35.301500 48.879000
9292 1 17.650750 33.943750 50.236750
9293 1 17.650750 36.659250 52.952250
9294 1 20.366250 33.943750 52.952250
9295 1 20.366250 36.659250 50.236750
9296 1 16.293000 32.586000 54.310000
9297 1 16.293000 35.301500 57.025500
9298 1 19.008500 32.586000 57.025500
9299 1 19.008500 35.301500 54.310000
9300 1 17.650750 33.943750 55.667750
9301 1 17.650750 36.659250 58.383250
9302 1 20.366250 33.943750 58.383250
9303 1 20.366250 36.659250 55.667750
9304 1 16.293000 32.586000 59.741000
9305 1 16.293000 35.301500 62.456500
9306 1 19.008500 32.586000 62.456500
9307 1 19.008500 35.301500 59.741000
9308 1 17.650750 33.943750 61.098750
9309 1 17.650750 36.659250 63.814250
9310 1 20.366250 33.943750 63.814250
9311 1 20.366250 36.659250 61.098750
9312 1 16.293000 32.586000 65.172000
9313 1 16.293000 35.301500 67.887500
9314 1 19.008500 32.586000 67.887500
9315 1 19.008500 35.301500 65.172000
9316 1 17.650750 33.943750 66.529750
9317 1 17.650750 36.659250 69.245250
9318 1 20.366250 33.943750 69.245250
9319 1 20.366250 36.659250 66.529750
9320 1 16.293000 32.586000 70.603000
9321 1 16.293000 35.301500 73.318500
9322 1 19.008500 32.586000 73.318500
9323 1 19.008500 35.301500 70.603000
9324 1 17.650750 33.943750 71.960750
9325 1 17.650750 36.659250 74.676250
9326 1 20.366250 33.943750 74.676250
9327 1 20.366250 36.659250 71.960750
9328 1 16.293000 32.586000 76.034000
9329 1 16.293000 35.301500 78.749500
9330 1 19.008500 32.586000 78.749500
9331 1 19.008500 35.301500 76.034000
9332 1 17.650750 33.943750 77.391750
9333 1 17.650750 36.659250 80.107250
9334 1 20.366250 33.943750 80.107250
9335 1 20.366250 36.659250 77.391750
9336 1 16.293000 32.586000 81.465000
9337 1 16.293000 35.301500 84.180500
9338 1 19.008500 32.586000 84.180500
9339 1 19.008500 35.301500 81.465000
9340 1 17.650750 33.943750 82.822750
9341 1 17.650750 36.659250 85.538250
9342 1 20.366250 33.943750 85.538250
9343 1 20.366250 36.659250 82.822750
9344 1 16.293000 32.586000 86.896000
9345 1 16.293000 35.301500 89.611500
9346 1 19.008500 32.586000 89.611500
9347 1 19.008500 35.301500 86.896000
9348 1 17.650750 33.943750 88.253750
9349 1 17.650750 36.659250 90.969250
9350 1 20.366250 33.943750 90.969250
9351 1 20.366250 36.659250 88.253750
9352 1 16.293000 32.586000 92.327000
9353 1 16.293000 35.301500 95.042500
9354 1 19.008500 32.586000 95.042500
9355 1 19.008500 35.301500 92.327000
9356 1 17.650750 33.943750 93.684750
9357 1 17.650750 36.659250 96.400250
9358 1 20.366250 33.943750 96.400250
9359 1 20.366250 36.659250 93.684750
9360 1 16.293000 32.586000 97.758000
9361 1 16.293000 35.301500 100.473500
9362 1 19.008500 32.586000 100.473500
9363 1 19.008500 35.301500 97.758000
9364 1 17.650750 33.943750 99.115750
9365 1 17.650750 36.659250 101.831250
9366 1 20.366250 33.943750 101.831250
9367 1 20.366250 36.659250 99.115750
9368 1 16.293000 32.586000 103.189000
9369 1 16.293000 35.301500 105.904500
9370 1 19.008500 32.586000 105.904500
9371 1 19.008500 35.301500 103.189000
9372 1 17.650750 33.943750 104.546750
9373 1 17.650750 36.659250 107.262250
9374 1 20.366250 33.943750 107.262250
9375 1 20.366250 36.659250 104.546750
9376 1 16.293000 32.586000 108.620000
9377 1 16.293000 35.301500 111.335500
9378 1 19.008500 32.586000 111.335500
9379 1 19.008500 35.301500 108.620000
9380 1 17.650750 33.943750 109.977750
9381 1 17.650750 36.659250 112.693250
9382 1 20.366250 33.943750 112.693250
9383 1 20.366250 36.659250 109.977750
9384 1 16.293000 32.586000 114.051000
9385 1 16.293000 35.301500 116.766500
9386 1 19.008500 32.586000 116.766500
9387 1 19.008500 35.301500 114.051000
9388 1 17.650750 33.943750 115.408750
9389 1 17.650750 36.659250 118.124250
9390 1 20.366250 33.943750 118.124250
9391 1 20.366250 36.659250 115.408750
9392 1 16.293000 32.586000 119.482000
9393 1 16.293000 35.301500 122.197500
9394 1 19.008500 32.586000 122.197500
9395 1 19.008500 35.301500 119.482000
9396 1 17.650750 33.943750 120.839750
9397 1 17.650750 36.659250 123.555250
9398 1 20.366250 33.943750 123.555250
9399 1 20.366250 36.659250 120.839750
9400 1 16.293000 32.586000 124.913000
9401 1 16.293000 35.301500 127.628500
9402 1 19.008500 32.586000 127.628500
9403 1 19.008500 35.301500 124.913000
9404 1 17.650750 33.943750 126.270750
9405 1 17.650750 36.659250 128.986250
9406 1 20.366250 33.943750 128.986250
9407 1 20.366250 36.659250 126.270750
9408 1 16.293000 32.586000 130.344000
9409 1 16.293000 35.301500 133.059500
9410 1 19.008500 32.586000 133.059500
9411 1 19.008500 35.301500 130.344000
9412 1 17.650750 33.943750 131.701750
9413 1 17.650750 36.659250 134.417250
9414 1 20.366250 33.943750 134.417250
9415 1 20.366250 36.659250 131.701750
9416 1 16.293000 32.586000 135.775000
9417 1 16.293000 35.301500 138.490500
9418 1 19.008500 32.586000 138.490500
9419 1 19.008500 35.301500 135.775000
9420 1 17.650750 33.943750 137.132750
9421 1 17.650750 36.659250 139.848250
9422 1 20.366250 33.943750 139.848250
9423 1 20.366250 36.659250 137.132750
9424 1 16.293000 32.586000 141.206000
9425 1 16.293000 35.301500 143.921500
9426 1 19.008500 32.586000 143.921500
9427 1 19.008500 35.301500 141.206000
9428 1 17.650750 33.943750 142.563750
9429 1 17.650750 36.659250 145.279250
9430 1 20.366250 33.943750 145.279250
9431 1 20.366250 36.659250 142.563750
9432 1 16.293000 32.586000 146.637000
9433 1 16.293000 35.301500 149.352500
9434 1 19.008500 32.586000 149.352500
9435 1 19.008500 35.301500 146.637000
9436 1 17.650750 33.943750 147.994750
9437 1 17.650750 36.659250 150.710250
9438 1 20.366250 33.943750 150.710250
9439 1 20.366250 36.659250 147.994750
9440 1 16.293000 32.586000 152.068000
9441 1 16.293000 35.301500 154.783500
9442 1 19.008500 32.586000 154.783500
9443 1 19.008500 35.301500 152.068000
9444 1 17.650750 33.943750 153.425750
9445 1 17.650750 36.659250 156.141250
9446 1 20.366250 33.943750 156.141250
9447 1 20.366250 36.659250 153.425750
9448 1 16.293000 32.586000 157.499000
9449 1 16.293000 35.301500 160.214500
9450 1 19.008500 32.586000 160.214500
9451 1 19.008500 35.301500 157.499000
9452 1 17.650750 33.943750 158.856750
9453 1 17.650750 36.659250 161.572250
9454 1 20.366250 33.943750 161.572250
9455 1 20.366250 36.659250 158.856750
9456 1 16.293000 32.586000 162.930000
9457 1 16.293000 35.301500 165.645500
9458 1 19.008500 32.586000 165.645500
9459 1 19.008500 35.301500 162.930000
9460 1 17.650750 33.943750 164.287750
9461 1 17.650750 36.659250 167.003250
9462 1 20.366250 33.943750 167.003250
9463 1 20.366250 36.659250 164.287750
9464 1 16.293000 32.586000 168.361000
9465 1 16.293000 35.301500 171.076500
9466 1 19.008500 32.586000 171.076500
9467 1 19.008500 35.301500 168.361000
9468 1 17.650750 33.943750 169.718750
9469 1 17.650750 36.659250 172.434250
9470 1 20.366250 33.943750 172.434250
9471 1 20.366250 36.659250 169.718750
9472 1 16.293000 32.586000 173.792000
9473 1 16.293000 35.301500 176.507500
9474 1 19.008500 32.586000 176.507500
9475 1 19.008500 35.301500 173.792000
9476 1 17.650750 33.943750 175.149750
9477 1 17.650750 36.659250 177.865250
9478 1 20.366250 33.943750 177.865250
9479 1 20.366250 36.659250 175.149750
9480 1 16.293000 32.586000 179.223000
9481 1 16.293000 35.301500 181.938500
9482 1 19.008500 32.586000 181.938500
9483 1 19.008500 35.301500 179.223000
9484 1 17.650750 33.943750 180.580750
9485 1 17.650750 36.659250 183.296250
9486 1 20.366250 33.943750 183.296250
9487 1 20.366250 36.659250 180.580750
9488 1 16.293000 32.586000 184.654000
9489 1 16.293000 35.301500 187.369500
9490 1 19.008500 32.586000 187.369500
9491 1 19.008500 35.301500 184.654000
9492 1 17.650750 33.943750 186.011750
9493 1 17.650750 36.659250 188.727250
9494 1 20.366250 33.943750 188.727250
9495 1 20.366250 36.659250 186.011750
9496 1 16.293000 32.586000 190.085000
9497 1 16.293000 35.301500 192.800500
9498 1 19.008500 32.586000 192.800500
9499 1 19.008500 35.301500 190.085000
9500 1 17.650750 33.943750 191.442750
9501 1 17.650750 36.659250 194.158250
9502 1 20.366250 33.943750 194.158250
9503 1 20.366250 36.659250 191.442750
9504 1 16.293000 32.586000 195.516000
9505 1 16.293000 35.301500 198.231500
9506 1 19.008500 32.586000 198.231500
9507 1 19.008500 35.301500 195.516000
9508 1 17.650750 33.943750 196.873750
9509 1 17.650750 36.659250 199.589250
9510 1 20.366250 33.943750 199.589250
9511 1 20.366250 36.659250 196.873750
9512 1 16.293000 32.586000 200.947000
9513 1 16.293000 35.301500 203.662500
9514 1 19.008500 32.586000 203.662500
9515 1 19.008500 35.301500 200.947000
9516 1 17.650750 33.943750 202.304750
9517 1 17.650750 36.659250 205.020250
9518 1 20.366250 33.943750 205.020250
9519 1 20.366250 36.659250 202.304750
9520 1 16.293000 32.586000 206.378000
9521 1 16.293000 35.301500 209.093500
9522 1 19.008500 32.586000 209.093500
9523 1 19.008500 35.301500 206.378000
9524 1 17.650750 33.943750 207.735750
9525 1 17.650750 36.659250 210.451250
9526 1 20.366250 33.943750 210.451250
9527 1 20.366250 36.659250 207.735750
9528 1 16.293000 32.586000 211.809000
9529 1 16.293000 35.301500 214.524500
9530 1 19.008500 32.586000 214.524500
9531 1 19.008500 35.301500 211.809000
9532 1 17.650750 33.943750 213.166750
9533 1 17.650750 36.659250 215.882250
9534 1 20.366250 33.943750 215.882250
9535 1 20.366250 36.659250 213.166750
9536 1 16.293000 32.586000 217.240000
9537 1 16.293000 35.301500 219.955500
9538 1 19.008500 32.586000 219.955500
9539 1 19.008500 35.301500 217.240000
9540 1 17.650750 33.943750 218.597750
9541 1 17.650750 36.659250 221.313250
9542 1 20.366250 33.943750 221.313250
9543 1 20.366250 36.659250 218.597750
9544 1 16.293000 32.586000 222.671000
9545 1 16.293000 35.301500 225.386500
9546 1 19.008500 32.586000 225.386500
9547 1 19.008500 35.301500 222.671000
9548 1 17.650750 33.943750 224.028750
9549 1 17.650750 36.659250 226.744250
9550 1 20.366250 33.943750 226.744250
9551 1 20.366250 36.659250 224.028750
9552 1 16.293000 32.586000 228.102000
9553 1 16.293000 35.301500 230.817500
9554 1 19.008500 32.586000 230.817500
9555 1 19.008500 35.301500 228.102000
9556 1 17.650750 33.943750 229.459750
9557 1 17.650750 36.659250 232.175250
9558 1 20.366250 33.943750 232.175250
9559 1 20.366250 36.659250 229.459750
9560 1 16.293000 32.586000 233.533000
9561 1 16.293000 35.301500 236.248500
9562 1 19.008500 32.586000 236.248500
9563 1 19.008500 35.301500 233.533000
9564 1 17.650750 33.943750 234.890750
9565 1 17.650750 36.659250 237.606250
9566 1 20.366250 33.943750 237.606250
9567 1 20.366250 36.659250 234.890750
9568 1 16.293000 32.586000 238.964000
9569 1 16.293000 35.301500 241.679500
9570 1 19.008500 32.586000 241.679500
9571 1 19.008500 35.301500 238.964000
9572 1 17.650750 33.943750 240.321750
9573 1 17.650750 36.659250 243.037250
9574 1 20.366250 33.943750 243.037250
9575 1 20.366250 36.659250 240.321750
9576 1 16.293000 32.586000 244.395000
9577 1 16.293000 35.301500 247.110500
9578 1 19.008500 32.586000 247.110500
9579 1 19.008500 35.301500 244.395000
9580 1 17.650750 33.943750 245.752750
9581 1 17.650750 36.659250 248.468250
9582 1 20.366250 33.943750 248.468250
9583 1 20.366250 36.659250 245.752750
9584 1 16.293000 32.586000 249.826000
9585 1 16.293000 35.301500 252.541500
9586 1 19.008500 32.586000 252.541500
9587 1 19.008500 35.301500 249.826000
9588 1 17.650750 33.943750 251.183750
9589 1 17.650750 36.659250 253.899250
9590 1 20.366250 33.943750 253.899250
9591 1 20.366250 36.659250 251.183750
9592 1 16.293000 32.586000 255.257000
9593 1 16.293000 35.301500 257.972500
9594 1 19.008500 32.586000 257.972500
9595 1 19.008500 35.301500 255.257000
9596 1 17.650750 33.943750 256.614750
9597 1 17.650750 36.659250 259.330250
9598 1 20.366250 33.943750 259.330250
9599 1 20.366250 36.659250 256.614750
9600 1 16.293000 38.017000 0.000000
9601 1 16.293000 40.732500 2.715500
9602 1 19.008500 38.017000 2.715500
9603 1 19.008500 40.732500 0.000000
9604 1 17.650750 39.374750 1.357750
9605 1 17.650750 42.090250 4.073250
9606 1 20.366250 39.374750 4.073250
9607 1 20.366250 42.090250 1.357750
9608 1 16.293000 38.017000 5.431000
9609 1 16.293000 40.732500 8.146500
9610 1 19.008500 38.017000 8.146500
9611 1 19.008500 40.732500 5.431000
9612 1 17.650750 39.374750 6.788750
9613 1 17.650750 42.090250 9.504250
9614 1 20.366250 39.374750 9.504250
9615 1 20.366250 42.090250 6.788750
9616 1 16.293000 38.017000 10.862000
9617 1 16.293000 40.732500 13.577500
9618 1 19.008500 38.017000 13.577500
9619 1 19.008500 40.732500 10.862000
9620 1 17.650750 39.374750 12.219750
9621 1 17.650750 42.090250 14.935250
9622 1 20.366250 39.374750 14.935250
9623 1 20.366250 42.090250 12.219750
9624 1 16.293000 38.017000 16.293000
9625 1 16.293000 40.732500 19.008500
9626 1 19.008500 38.017000 19.008500
9627 1 19.008500 40.732500 16.293000
9628 1 17.650750 39.374750 17.650750
9629 1 17.650750 42.090250 20.366250
9630 1 20.366250 39.374750 20.366250
9631 1 20.366250 42.090250 17.650750
9632 1 16.293000 38.017000 21.724000
9633 1 16.293000 40.732500 24.439500
9634 1 19.008500 38.017000 24.439500
9635 1 19.008500 40.732500 21.724000
9636 1 17.650750 39.374750 23.081750
9637 1 17.650750 42.090250 25.797250
9638 1 20.366250 39.374750 25.797250
9639 1 20.366250 42.090250 23.081750
9640 1 16.293000 38.017000 27.155000
9641 1 16.293000 40.732500 29.870500
9642 1 19.008500 38.017000 29.870500
9643 1 19.008500 40.732500 27.155000
9644 1 17.650750 39.374750 28.512750
9645 1 17.650750 42.090250 31.228250
9646 1 20.366250 39.374750 31.228250
9647 1 20.366250 42.090250 28.512750
9648 1 16.293000 38.017000 32.586000
9649 1 16.293000 40.732500 35.301500
9650 1 19.008500 38.017000 35.301500
9651 1 19.008500 40.732500 32.586000
9652 1 17.650750 39.374750 33.943750
9653 1 17.650750 42.090250 36.659250
9654 1 20.366250 39.374750 36.659250
9655 1 20.366250 42.090250 33.943750
9656 1 16.293000 38.017000 38.017000
9657 1 16.293000 40.732500 40.732500
9658 1 19.008500 38.017000 40.732500
9659 1 19.008500 40.732500 38.017000
9660 1 17.650750 39.374750 39.374750
9661 1 17.650750 42.090250 42.090250
9662 1 20.366250 39.374750 42.090250
9663 1 20.366250 42.090250 39.374750
9664 1 16.293000 38.017000 43.448000
9665 1 16.293000 40.732500 46.163500
9666 1 19.008500 38.017000 46.163500
9667 1 19.008500 40.732500 43.448000
9668 1 17.650750 39.374750 44.805750
9669 1 17.650750 42.090250 47.521250
9670 1 20.366250 39.374750 47.521250
9671 1 20.366250 42.090250 44.805750
9672 1 16.293000 38.017000 48.879000
9673 1 16.293000 40.732500 51.594500
9674 1 19.008500 38.017000 51.594500
9675 1 19.008500 40.732500 48.879000
9676 1 17.650750 39.374750 50.236750
9677 1 17.650750 42.090250 52.952250
9678 1 20.366250 39.374750 52.952250
9679 1 20.366250 42.090250 50.236750
9680 1 16.293000 38.017000 54.310000
9681 1 16.293000 40.732500 57.025500
9682 1 19.008500 38.017000 57.025500
9683 1 19.008500 40.732500 54.310000
9684 1 17.650750 39.374750 55.667750
9685 1 17.650750 42.090250 58.383250
9686 1 20.366250 39.374750 58.383250
9687 1 20.366250 42.090250 55.667750
9688 1 16.293000 38.017000 59.741000
9689 1 16.293000 40.732500 62.456500
9690 1 19.008500 38.017000 62.456500
9691 1 19.008500 40.732500 59.741000
9692 1 17.650750 39.374750 61.098750
9693 1 17.650750 42.090250 63.814250
9694 1 20.366250 39.374750 63.814250
9695 1 20.366250 42.090250 61.098750
9696 1 16.293000 38.017000 65.172000
9697 1 16.293000 40.732500 67.887500
9698 1 19.008500 38.017000 67.887500
9699 1 19.008500 40.732500 65.172000
9700 1 17.650750 39.374750 66.529750
9701 1 17.650750 42.090250 69.245250
9702 1 20.366250 39.374750 69.245250
9703 1 20.366250 42.090250 66.529750
9704 1 16.293000 38.017000 70.603000
9705 1 16.293000 40.732500 73.318500
9706 1 19.008500 38.017000 73.318500
9707 1 19.008500 40.732500 70.603000
9708 1 17.650750 39.374750 71.960750
9709 1 17.650750 42.090250 74.676250
9710 1 20.366250 39.374750 74.676250
9711 1 20.366250 42.090250 71.960750
9712 1 16.293000 38.017000 76.034000
9713 1 16.293000 40.732500 78.749500
9714 1 19.008500 38.017000 78.749500
9715 1 19.008500 40.732500 76.034000
9716 1 17.650750 39.374750 77.391750
9717 1 17.650750 42.090250 80.107250
9718 1 20.366250 39.374750 80.107250
9719 1 20.366250 42.090250 77.391750
9720 1 16.293000 38.017000 81.465000
9721 1 16.293000 40.732500 84.180500
9722 1 19.008500 38.017000 84.180500
9723 1 19.008500 40.732500 81.465000
9724 1 17.650750 39.374750 82.822750
9725 1 17.650750 42.090250 85.538250
9726 1 20.366250 39.374750 85.538250
9727 1 20.366250 42.090250 82.822750
9728 1 16.293000 38.017000 86.896000
9729 1 16.293000 40.732500 89.611500
9730 1 19.008500 38.017000 89.611500
9731 1 19.008500 40.732500 86.896000
9732 1 17.650750 39.374750 88.253750
9733 1 17.650750 42.090250 90.969250
9734 1 20.366250 39.374750 90.969250
9735 1 20.366250 42.090250 88.253750
9736 1 16.293000 38.017000 92.327000
9737 1 16.293000 40.732500 95.042500
9738 1 19.008500 38.017000 95.042500
9739 1 19.008500 40.732500 92.327000
9740 1 17.650750 39.374750 93.684750
9741 1 17.650750 42.090250 96.400250
9742 1 20.366250 39.374750 96.400250
9743 1 20.366250 42.090250 93.684750
9744 1 16.293000 38.017000 97.758000
9745 1 16.293000 40.732500 100.473500
9746 1 19.008500 38.017000 100.473500
9747 1 19.008500 40.732500 97.758000
9748 1 17.650750 39.374750 99.115750
9749 1 17.650750 42.090250 101.831250
9750 1 20.366250 39.374750 101.831250
9751 1 20.366250 42.090250 99.115750
9752 1 16.293000 38.017000 103.189000
9753 1 16.293000 40.732500 105.904500
9754 1 19.008500 38.017000 105.904500
9755 1 19.008500 40.732500 103.189000
9756 1 17.650750 39.374750 104.546750
9757 1 17.650750 42.090250 107.262250
9758 1 20.366250 39.374750 107.262250
9759 1 20.366250 42.090250 104.546750
9760 1 16.293000 38.017000 108.620000
9761 1 16.293000 40.732500 111.335500
9762 1 19.008500 38.017000 111.335500
9763 1 19.008500 40.732500 108.620000
9764 1 17.650750 39.374750 109.977750
9765 1 17.650750 42.090250 112.693250
9766 1 20.366250 39.374750 112.693250
9767 1 20.366250 42.090250 109.977750
9768 1 16.293000 38.017000 114.051000
9769 1 16.293000 40.732500 116.766500
9770 1 19.008500 38.017000 116.766500
9771 1 19.008500 40.732500 114.051000
9772 1 17.650750 39.374750 115.408750
9773 1 17.650750 42.090250 118.124250
9774 1 20.366250 39.374750 118.124250
9775 1 20.366250 42.090250 115.408750
9776 1 16.293000 38.017000 119.482000
9777 1 16.293000 40.732500 122.197500
9778 1 19.008500 38.017000 122.197500
9779 1 19.008500 40.732500 119.482000
9780 1 17.650750 39.374750 120.839750
9781 1 17.650750 42.090250 123.555250
9782 1 20.366250 39.374750 123.555250
9783 1 20.366250 42.090250 120.839750
9784 1 16.293000 38.017000 124.913000
9785 1 16.293000 40.732500 127.628500
9786 1 19.008500 38.017000 127.628500
9787 1 19.008500 40.732500 124.913000
9788 1 17.650750 39.374750 126.270750
9789 1 17.650750 42.090250 128.986250
9790 1 20.366250 39.374750 128.986250
9791 1 20.366250 42.090250 126.270750
9792 1 16.293000 38.017000 130.344000
9793 1 16.293000 40.732500 133.059500
9794 1 19.008500 38.017000 133.059500
9795 1 19.008500 40.732500 130.344000
9796 1 17.650750 39.374750 131.701750
9797 1 17.650750 42.090250 134.417250
9798 1 20.366250 39.374750 134.417250
9799 1 20.366250 42.090250 131.701750
9800 1 16.293000 38.017000 135.775000
9801 1 16.293000 40.732500 138.490500
9802 1 19.008500 38.017000 138.490500
9803 1 19.008500 40.732500 135.775000
9804 1 17.650750 39.374750 137.132750
9805 1 17.650750 42.090250 139.848250
9806 1 20.366250 39.374750 139.848250
9807 1 20.366250 42.090250 137.132750
9808 1 16.293000 38.017000 141.206000
9809 1 16.293000 40.732500 143.921500
9810 1 19.008500 38.017000 143.921500
9811 1 19.008500 40.732500 141.206000
9812 1 17.650750 39.374750 142.563750
9813 1 17.650750 42.090250 145.279250
9814 1 20.366250 39.374750 145.279250
9815 1 20.366250 42.090250 142.563750
9816 1 16.293000 38.017000 146.637000
9817 1 16.293000 40.732500 149.352500
9818 1 19.008500 38.017000 149.352500
9819 1 19.008500 40.732500 146.637000
9820 1 17.650750 39.374750 147.994750
9821 1 17.650750 42.090250 150.710250
9822 1 20.366250 39.374750 150.710250
9823 1 20.366250 42.090250 147.994750
9824 1 16.293000 38.017000 152.068000
9825 1 16.293000 40.732500 154.783500
9826 1 19.008500 38.017000 154.783500
9827 1 19.008500 40.732500 152.068000
9828 1 17.650750 39.374750 153.425750
9829 1 17.650750 42.090250 156.141250
9830 1 20.366250 39.374750 156.141250
9831 1 20.366250 42.090250 153.425750
9832 1 16.293000 38.017000 157.499000
9833 1 16.293000 40.732500 160.214500
9834 1 19.008500 38.017000 160.214500
9835 1 19.008500 40.732500 157.499000
9836 1 17.650750 39.374750 158.856750
9837 1 17.650750 42.090250 161.572250
9838 1 20.366250 39.374750 161.572250
9839 1 20.366250 42.090250 158.856750
9840 1 16.293000 38.017000 162.930000
9841 1 16.293000 40.732500 165.645500
9842 1 19.008500 38.017000 165.645500
9843 1 19.008500 40.732500 162.930000
9844 1 17.650750 39.374750 164.287750
9845 1 17.650750 42.090250 167.003250
9846 1 20.366250 39.374750 167.003250
9847 1 20.366250 42.090250 164.287750
9848 1 16.293000 38.017000 168.361000
9849 1 16.293000 40.732500 171.076500
9850 1 19.008500 38.017000 171.076500
9851 1 19.008500 40.732500 168.361000
9852 1 17.650750 39.374750 169.718750
9853 1 17.650750 42.090250 172.434250
9854 1 20.366250 39.374750 172.434250
9855 1 20.366250 42.090250 169.718750
9856 1 16.293000 38.017000 173.792000
9857 1 16.293000 40.732500 176.507500
9858 1 19.008500 38.017000 176.507500
9859 1 19.008500 40.732500 173.792000
9860 1 17.650750 39.374750 175.149750
9861 1 17.650750 42.090250 177.865250
9862 1 20.366250 39.374750 177.865250
9863 1 20.366250 42.090250 175.149750
9864 1 16.293000 38.017000 179.223000
9865 1 16.293000 40.732500 181.938500
9866 1 19.008500 38.017000 181.938500
9867 1 19.008500 40.732500 179.223000
9868 1 17.650750 39.374750 180.580750
9869 1 17.650750 42.090250 183.296250
9870 1 20.366250 39.374750 183.296250
9871 1 20.366250 42.090250 180.580750
9872 1 16.293000 38.017000 184.654000
9873 1 16.293000 40.732500 187.369500
9874 1 19.008500 38.017000 187.369500
9875 1 19.008500 40.732500 184.654000
9876 1 17.650750 39.374750 186.011750
9877 1 17.650750 42.090250 188.727250
9878 1 20.366250 39.374750 188.727250
9879 1 20.366250 42.090250 186.011750
9880 1 16.293000 38.017000 190.085000
9881 1 16.293000 40.732500 192.800500
9882 1 19.008500 38.017000 192.800500
9883 1 19.008500 40.732500 190.085000
9884 1 17.650750 39.374750 191.442750
9885 1 17.650750 42.090250 194.158250
9886 1 20.366250 39.374750 194.158250
9887 1 20.366250 42.090250 191.442750
9888 1 16.293000 38.017000 195.516000
9889 1 16.293000 40.732500 198.231500
9890 1 19.008500 38.017000 198.231500
9891 1 19.008500 40.732500 195.516000
9892 1 17.650750 39.374750 196.873750
9893 1 17.650750 42.090250 199.589250
9894 1 20.366250 39.374750 199.589250
9895 1 20.366250 42.090250 196.873750
9896 1 16.293000 38.017000 200.947000
9897 1 16.293000 40.732500 203.662500
9898 1 19.008500 38.017000 203.662500
9899 1 19.008500 40.732500 200.947000
9900 1 17.650750 39.374750 202.304750
9901 1 17.650750 42.090250 205.020250
9902 1 20.366250 39.374750 205.020250
9903 1 20.366250 42.090250 202.304750
9904 1 16.293000 38.017000 206.378000
9905 1 16.293000 40.732500 209.093500
9906 1 19.008500 38.017000 209.093500
9907 1 19.008500 40.732500 206.378000
9908 1 17.650750 39.374750 207.735750
9909 1 17.650750 42.090250 210.451250
9910 1 20.366250 39.374750 210.451250
9911 1 20.366250 42.090250 207.735750
9912 1 16.293000 38.017000 211.809000
9913 1 16.293000 40.732500 214.524500
9914 1 19.008500 38.017000 214.524500
9915 1 19.008500 40.732500 211.809000
9916 1 17.650750 39.374750 213.166750
9917 1 17.650750 42.090250 215.882250
9918 1 20.366250 39.374750 215.882250
9919 1 20.366250 42.090250 213.166750
9920 1 16.293000 38.017000 217.240000
9921 1 16.293000 40.732500 219.955500
9922 1 19.008500 38.017000 219.955500
9923 1 19.008500 40.732500 217.240000
9924 1 17.650750 39.374750 218.597750
9925 1 17.650750 42.090250 221.313250
9926 1 20.366250 39.374750 221.313250
9927 1 20.366250 42.090250 218.597750
9928 1 16.293000 38.017000 222.671000
9929 1 16.293000 40.732500 225.386500
9930 1 19.008500 38.017000 225.386500
9931 1 19.008500 40.732500 222.671000
9932 1 17.650750 39.374750 224.028750
9933 1 17.650750 42.090250 226.744250
9934 1 20.366250 39.374750 226.744250
9935 1 20.366250 42.090250 224.028750
9936 1 16.293000 38.017000 228.102000
9937 1 16.293000 40.732500 230.817500
9938 1 19.008500 38.017000 230.817500
9939 1 19.008500 40.732500 228.102000
9940 1 17.650750 39.374750 229.459750
9941 1 17.650750 42.090250 232.175250
9942 1 20.366250 39.374750 232.175250
9943 1 20.366250 42.090250 229.459750
9944 1 16.293000 38.017000 233.533000
9945 1 16.293000 40.732500 236.248500
9946 1 19.008500 38.017000 236.248500
9947 1 19.008500 40.732500 233.533000
9948 1 17.650750 39.374750 234.890750
9949 1 17.650750 42.090250 237.606250
9950 1 20.366250 39.374750 237.606250
9951 1 20.366250 42.090250 234.890750
9952 1 16.293000 38.017000 238.964000
9953 1 16.293000 40.732500 241.679500
9954 1 19.008500 38.017000 241.679500
9955 1 19.008500 40.732500 238.964000
9956 1 17.650750 39.374750 240.321750
9957 1 17.650750 42.090250 243.037250
9958 1 20.366250 39.374750 243.037250
9959 1 20.366250 42.090250 240.321750
9960 1 16.293000 38.017000 244.395000
9961 1 16.293000 40.732500 247.110500
9962 1 19.008500 38.017000 247.110500
9963 1 19.008500 40.732500 244.395000
9964 1 17.650750 39.374750 245.752750
9965 1 17.650750 42.090250 248.468250
9966 1 20.366250 39.374750 248.468250
9967 1 20.366250 42.090250 245.752750
9968 1 16.293000 38.017000 249.826000
9969 1 16.293000 40.732500 252.541500
9970 1 19.008500 38.017000 252.541500
9971 1 19.008500 40.732500 249.826000
9972 1 17.650750 39.374750 251.183750
9973 1 17.650750 42.090250 253.899250
9974 1 20.366250 39.374750 253.899250
9975 1 20.366250 42.090250 251.183750
9976 1 16.293000 38.017000 255.257000
9977 1 16.293000 40.732500 257.972500
9978 1 19.008500 38.017000 257.972500
9979 1 19.008500 40.732500 255.257000
9980 1 17.650750 39.374750 256.614750
9981 1 17.650750 42.090250 259.330250
9982 1 20.366250 39.374750 259.330250
9983 1 20.366250 42.090250 256.614750
9984 1 21.724000 2.715500 24.439500
9985 1 24.439500 0.000000 24.439500
9986 1 23.081750 1.357750 23.081750
9987 1 23.081750 4.073250 25.797250
9988 1 25.797250 1.357750 25.797250
9989 1 25.797250 4.073250 23.081750
9990 1 21.724000 0.000000 27.155000
9991 1 21.724000 2.715500 29.870500
9992 1 24.439500 0.000000 29.870500
9993 1 24.439500 2.715500 27.155000
9994 1 23.081750 1.357750 28.512750
9995 1 23.081750 4.073250 31.228250
9996 1 25.797250 1.357750 31.228250
9997 1 25.797250 4.073250 28.512750
9998 1 21.724000 0.000000 32.586000
9999 1 21.724000 2.715500 35.301500
10000 1 24.439500 0.000000 35.301500
10001 1 24.439500 2.715500 32.586000
10002 1 23.081750 1.357750 33.943750
10003 1 23.081750 4.073250 36.659250
10004 1 25.797250 1.357750 36.659250
10005 1 25.797250 4.073250 33.943750
10006 1 21.724000 0.000000 38.017000
10007 1 21.724000 2.715500 40.732500
10008 1 24.439500 0.000000 40.732500
10009 1 24.439500 2.715500 38.017000
10010 1 23.081750 1.357750 39.374750
10011 1 23.081750 4.073250 42.090250
10012 1 25.797250 1.357750 42.090250
10013 1 25.797250 4.073250 39.374750
10014 1 21.724000 2.715500 67.887500
10015 1 24.439500 0.000000 67.887500
10016 1 23.081750 1.357750 66.529750
10017 1 23.081750 4.073250 69.245250
10018 1 25.797250 1.357750 69.245250
10019 1 25.797250 4.073250 66.529750
10020 1 21.724000 0.000000 70.603000
10021 1 21.724000 2.715500 73.318500
10022 1 24.439500 0.000000 73.318500
10023 1 24.439500 2.715500 70.603000
10024 1 23.081750 1.357750 71.960750
10025 1 23.081750 4.073250 74.676250
10026 1 25.797250 1.357750 74.676250
10027 1 25.797250 4.073250 71.960750
10028 1 21.724000 0.000000 76.034000
10029 1 21.724000 2.715500 78.749500
10030 1 24.439500 0.000000 78.749500
10031 1 24.439500 2.715500 76.034000
10032 1 23.081750 1.357750 77.391750
10033 1 23.081750 4.073250 80.107250
10034 1 25.797250 1.357750 80.107250
10035 1 25.797250 4.073250 77.391750
10036 1 21.724000 0.000000 81.465000
10037 1 21.724000 2.715500 84.180500
10038 1 24.439500 0.000000 84.180500
10039 1 24.439500 2.715500 81.465000
10040 1 23.081750 1.357750 82.822750
10041 1 23.081750 4.073250 85.538250
10042 1 25.797250 1.357750 85.538250
10043 1 25.797250 4.073250 82.822750
10044 1 21.724000 2.715500 111.335500
10045 1 24.439500 0.000000 111.335500
10046 1 23.081750 1.357750 109.977750
10047 1 23.081750 4.073250 112.693250
10048 1 25.797250 1.357750 112.693250
10049 1 25.797250 4.073250 109.977750
10050 1 21.724000 0.000000 114.051000
10051 1 21.724000 2.715500 116.766500
10052 1 24.439500 0.000000 116.766500
10053 1 24.439500 2.715500 114.051000
10054 1 23.081750 1.357750 115.408750
10055 1 23.081750 4.073250 118.124250
10056 1 25.797250 1.357750 118.124250
10057 1 25.797250 4.073250 115.408750
10058 1 21.724000 0.000000 119.482000
10059 1 21.724000 2.715500 122.197500
10060 1 24.439500 0.000000 122.197500
10061 1 24.439500 2.715500 119.482000
10062 1 23.081750 1.357750 120.839750
10063 1 23.081750 4.073250 123.555250
10064 1 25.797250 1.357750 123.555250
10065 1 25.797250 4.073250 120.839750
10066 1 21.724000 0.000000 124.913000
10067 1 21.724000 2.715500 127.628500
10068 1 24.439500 0.000000 127.628500
10069 1 24.439500 2.715500 124.913000
10070 1 23.081750 1.357750 126.270750
10071 1 23.081750 4.073250 128.986250
10072 1 25.797250 1.357750 128.986250
10073 1 25.797250 4.073250 126.270750
10074 1 21.724000 2.715500 154.783500
10075 1 24.439500 0.000000 154.783500
10076 1 23.081750 1.357750 153.425750
10077 1 23.081750 4.073250 156.141250
10078 1 25.797250 1.357750 156.141250
10079 1 25.797250 4.073250 153.425750
10080 1 21.724000 0.000000 157.499000
10081 1 21.724000 2.715500 160.214500
10082 1 24.439500 0.000000 160.214500
10083 1 24.439500 2.715500 157.499000
10084 1 23.081750 1.357750 158.856750
10085 1 23.081750 4.073250 161.572250
10086 1 25.797250 1.357750 161.572250
10087 1 25.797250 4.073250 158.856750
10088 1 21.724000 0.000000 162.930000
10089 1 21.724000 2.715500 165.645500
10090 1 24.439500 0.000000 165.645500
10091 1 24.439500 2.715500 162.930000
10092 1 23.081750 1.357750 164.287750
10093 1 23.081750 4.073250 167.003250
10094 1 25.797250 1.357750 167.003250
10095 1 25.797250 4.073250 164.287750
10096 1 21.724000 0.000000 168.361000
10097 1 21.724000 2.715500 171.076500
10098 1 24.439500 0.000000 171.076500
10099 1 24.439500 2.715500 168.361000
10100 1 23.081750 1.357750 169.718750
10101 1 23.081750 4.073250 172.434250
10102 1 25.797250 1.357750 172.434250
10103 1 25.797250 4.073250 169.718750
10104 1 21.724000 2.715500 198.231500
10105 1 24.439500 0.000000 198.231500
10106 1 23.081750 1.357750 196.873750
10107 1 23.081750 4.073250 199.589250
10108 1 25.797250 1.357750 199.589250
10109 1 25.797250 4.073250 196.873750
10110 1 21.724000 0.000000 200.947000
10111 1 21.724000 2.715500 203.662500
10112 1 24.439500 0.000000 203.662500
10113 1 24.439500 2.715500 200.947000
10114 1 23.081750 1.357750 202.304750
10115 1 23.081750 4.073250 205.020250
10116 1 25.797250 1.357750 205.020250
10117 1 25.797250 4.073250 202.304750
10118 1 21.724000 0.000000 206.378000
10119 1 21.724000 2.715500 209.093500
10120 1 24.439500 0.000000 209.093500
10121 1 24.439500 2.715500 206.378000
10122 1 23.081750 1.357750 207.735750
10123 1 23.081750 4.073250 210.451250
10124 1 25.797250 1.357750 210.451250
10125 1 25.797250 4.073250 207.735750
10126 1 21.724000 0.000000 211.809000
10127 1 21.724000 2.715500 214.524500
10128 1 24.439500 0.000000 214.524500
10129 1 24.439500 2.715500 211.809000
10130 1 23.081750 1.357750 213.166750
10131 1 23.081750 4.073250 215.882250
10132 1 25.797250 1.357750 215.882250
10133 1 25.797250 4.073250 213.166750
10134 1 21.724000 2.715500 241.679500
10135 1 24.439500 0.000000 241.679500
10136 1 23.081750 1.357750 240.321750
10137 1 23.081750 4.073250 243.037250
10138 1 25.797250 1.357750 243.037250
10139 1 25.797250 4.073250 240.321750
10140 1 21.724000 0.000000 244.395000
10141 1 21.724000 2.715500 247.110500
10142 1 24.439500 0.000000 247.110500
10143 1 24.439500 2.715500 244.395000
10144 1 23.081750 1.357750 245.752750
10145 1 23.081750 4.073250 248.468250
10146 1 25.797250 1.357750 248.468250
10147 1 25.797250 4.073250 245.752750
10148 1 21.724000 0.000000 249.826000
10149 1 21.724000 2.715500 252.541500
10150 1 24.439500 0.000000 252.541500
10151 1 24.439500 2.715500 249.826000
10152 1 23.081750 1.357750 251.183750
10153 1 23.081750 4.073250 253.899250
10154 1 25.797250 1.357750 253.899250
10155 1 25.797250 4.073250 251.183750
10156 1 21.724000 0.000000 255.257000
10157 1 21.724000 2.715500 257.972500
10158 1 24.439500 0.000000 257.972500
10159 1 24.439500 2.715500 255.257000
10160 1 23.081750 1.357750 256.614750
10161 1 23.081750 4.073250 259.330250
10162 1 25.797250 1.357750 259.330250
10163 1 25.797250 4.073250 256.614750
10164 1 21.724000 8.146500 24.439500
10165 1 24.439500 5.431000 24.439500
10166 1 23.081750 6.788750 23.081750
10167 1 23.081750 9.504250 25.797250
10168 1 25.797250 6.788750 25.797250
10169 1 25.797250 9.504250 23.081750
10170 1 21.724000 5.431000 27.155000
10171 1 21.724000 8.146500 29.870500
10172 1 24.439500 5.431000 29.870500
10173 1 24.439500 8.146500 27.155000
10174 1 23.081750 6.788750 28.512750
10175 1 23.081750 9.504250 31.228250
10176 1 25.797250 6.788750 31.228250
10177 1 25.797250 9.504250 28.512750
10178 1 21.724000 5.431000 32.586000
10179 1 21.724000 8.146500 35.301500
10180 1 24.439500 5.431000 35.301500
10181 1 24.439500 8.146500 32.586000
10182 1 23.081750 6.788750 33.943750
10183 1 23.081750 9.504250 36.659250
10184 1 25.797250 6.788750 36.659250
10185 1 25.797250 9.504250 33.943750
10186 1 21.724000 5.431000 38.017000
10187 1 21.724000 8.146500 40.732500
10188 1 24.439500 5.431000 40.732500
10189 1 24.439500 8.146500 38.017000
10190 1 23.081750 6.788750 39.374750
10191 1 23.081750 9.504250 42.090250
10192 1 25.797250 6.788750 42.090250
10193 1 25.797250 9.504250 39.374750
10194 1 21.724000 8.146500 67.887500
10195 1 24.439500 5.431000 67.887500
10196 1 23.081750 6.788750 66.529750
10197 1 23.081750 9.504250 69.245250
10198 1 25.797250 6.788750 69.245250
10199 1 25.797250 9.504250 66.529750
10200 1 21.724000 5.431000 70.603000
10201 1 21.724000 8.146500 73.318500
10202 1 24.439500 5.431000 73.318500
10203 1 24.439500 8.146500 70.603000
10204 1 23.081750 6.788750 71.960750
10205 1 23.081750 9.504250 74.676250
10206 1 25.797250 6.788750 74.676250
10207 1 25.797250 9.504250 71.960750
10208 1 21.724000 5.431000 76.034000
10209 1 21.724000 8.146500 78.749500
10210 1 24.439500 5.431000 78.749500
10211 1 24.439500 8.146500 76.034000
10212 1 23.081750 6.788750 77.391750
10213 1 23.081750 9.504250 80.107250
10214 1 25.797250 6.788750 80.107250
10215 1 25.797250 9.504250 77.391750
10216 1 21.724000 5.431000 81.465000
10217 1 21.724000 8.146500 84.180500
10218 1 24.439500 5.431000 84.180500
10219 1 24.439500 8.146500 81.465000
10220 1 23.081750 6.788750 82.822750
10221 1 23.081750 9.504250 85.538250
10222 1 25.797250 6.788750 85.538250
10223 1 25.797250 9.504250 82.822750
10224 1 21.724000 8.146500 111.335500
10225 1 24.439500 5.431000 111.335500
10226 1 23.081750 6.788750 109.977750
10227 1 23.081750 9.504250 112.693250
10228 1 25.797250 6.788750 112.693250
10229 1 25.797250 9.504250 109.977750
10230 1 21.724000 5.431000 114.051000
10231 1 21.724000 8.146500 116.766500
10232 1 24.439500 5.431000 116.766500
10233 1 24.439500 8.146500 114.051000
10234 1 23.081750 6.788750 115.408750
10235 1 23.081750 9.504250 118.124250
10236 1 25.797250 6.788750 118.124250
10237 1 25.797250 9.504250 115.408750
10238 1 21.724000 5.431000 119.482000
10239 1 21.724000 8.146500 122.197500
10240 1 24.439500 5.431000 122.197500
10241 1 24.439500 8.146500 119.482000
10242 1 23.081750 6.788750 120.839750
10243 1 23.081750 9.504250 123.555250
10244 1 25.797250 6.788750 123.555250
10245 1 25.797250 9.504250 120.839750
10246 1 21.724000 5.431000 124.913000
10247 1 21.724000 8.146500 127.628500
10248 1 24.439500 5.431000 127.628500
10249 1 24.439500 8.146500 124.913000
10250 1 23.081750 6.788750 126.270750
10251 1 23.081750 9.504250 128.986250
10252 1 25.797250 6.788750 128.986250
10253 1 25.797250 9.504250 126.270750
10254 1 21.724000 8.146500 154.783500
10255 1 24.439500 5.431000 154.783500
10256 1 23.081750 6.788750 153.425750
10257 1 23.081750 9.504250 156.141250
10258 1 25.797250 6.788750 156.141250
10259 1 25.797250 9.504250 153.425750
10260 1 21.724000 5.431000 157.499000
10261 1 21.724000 8.146500 160.214500
10262 1 24.439500 5.431000 160.214500
10263 1 24.439500 8.146500 157.499000
10264 1 23.081750 6.788750 158.856750
10265 1 23.081750 9.504250 161.572250
10266 1 25.797250 6.788750 161.572250
10267 1 25.797250 9.504250 158.856750
10268 1 21.724000 5.431000 162.930000
10269 1 21.724000 8.146500 165.645500
10270 1 24.439500 5.431000 165.645500
10271 1 24.439500 8.146500 162.930000
10272 1 23.081750 6.788750 164.287750
10273 1 23.081750 9.504250 167.003250
10274 1 25.797250 6.788750 167.003250
10275 1 25.797250 9.504250 164.287750
10276 1 21.724000 5.431000 168.361000
10277 1 21.724000 8.146500 171.076500
10278 1 24.439500 5.431000 171.076500
10279 1 24.439500 8.146500 168.361000
10280 1 23.081750 6.788750 169.718750
10281 1 23.081750 9.504250 172.434250
10282 1 25.797250 6.788750 172.434250
10283 1 25.797250 9.504250 169.718750
10284 1 21.724000 8.146500 198.231500
10285 1 24.439500 5.431000 198.231500
10286 1 23.081750 6.788750 196.873750
10287 1 23.081750 9.504250 199.589250
10288 1 25.797250 6.788750 199.589250
10289 1 25.797250 9.504250 196.873750
10290 1 21.724000 5.431000 200.947000
10291 1 21.724000 8.146500 203.662500
10292 1 24.439500 5.431000 203.662500
10293 1 24.439500 8.146500 200.947000
10294 1 23.081750 6.788750 202.304750
10295 1 23.081750 9.504250 205.020250
10296 1 25.797250 6.788750 205.020250
10297 1 25.797250 9.504250 202.304750
10298 1 21.724000 5.431000 206.378000
10299 1 21.724000 8.146500 209.093500
10300 1 24.439500 5.431000 209.093500
10301 1 24.439500 8.146500 206.378000
10302 1 23.081750 6.788750 207.735750
10303 1 23.081750 9.504250 210.451250
10304 1 25.797250 6.788750 210.451250
10305 1 25.797250 9.504250 207.735750
10306 1 21.724000 5.431000 211.809000
10307 1 21.724000 8.146500 214.524500
10308 1 24.439500 5.431000 214.524500
10309 1 24.439500 8.146500 211.809000
10310 1 23.081750 6.788750 213.166750
10311 1 23.081750 9.504250 215.882250
10312 1 25.797250 6.788750 215.882250
10313 1 25.797250 9.504250 213.166750
10314 1 21.724000 8.146500 241.679500
10315 1 24.439500 5.431000 241.679500
10316 1 23.081750 6.788750 240.321750
10317 1 23.081750 9.504250 243.037250
10318 1 25.797250 6.788750 243.037250
10319 1 25.797250 9.504250 240.321750
10320 1 21.724000 5.431000 244.395000
10321 1 21.724000 8.146500 247.110500
10322 1 24.439500 5.431000 247.110500
10323 1 24.439500 8.146500 244.395000
10324 1 23.081750 6.788750 245.752750
10325 1 23.081750 9.504250 248.468250
10326 1 25.797250 6.788750 248.468250
10327 1 25.797250 9.504250 245.752750
10328 1 21.724000 5.431000 249.826000
10329 1 21.724000 8.146500 252.541500
10330 1 24.439500 5.431000 252.541500
10331 1 24.439500 8.146500 249.826000
10332 1 23.081750 6.788750 251.183750
10333 1 23.081750 9.504250 253.899250
10334 1 25.797250 6.788750 253.899250
10335 1 25.797250 9.504250 251.183750
10336 1 21.724000 5.431000 255.257000
10337 1 21.724000 8.146500 257.972500
10338 1 24.439500 5.431000 257.972500
10339 1 24.439500 8.146500 255.257000
10340 1 23.081750 6.788750 256.614750
10341 1 23.081750 9.504250 259.330250
10342 1 25.797250 6.788750 259.330250
10343 1 25.797250 9.504250 256.614750
10344 1 21.724000 13.577500 2.715500
10345 1 24.439500 13.577500 0.000000
10346 1 23.081750 12.219750 1.357750
10347 1 23.081750 14.935250 4.073250
10348 1 25.797250 12.219750 4.073250
10349 1 25.797250 14.935250 1.357750
10350 1 21.724000 13.577500 8.146500
10351 1 24.439500 13.577500 5.431000
10352 1 23.081750 12.219750 6.788750
10353 1 23.081750 14.935250 9.504250
10354 1 25.797250 12.219750 9.504250
10355 1 25.797250 14.935250 6.788750
10356 1 21.724000 13.577500 13.577500
10357 1 24.439500 13.577500 10.862000
10358 1 23.081750 12.219750 12.219750
10359 1 23.081750 14.935250 14.935250
10360 1 25.797250 12.219750 14.935250
10361 1 25.797250 14.935250 12.219750
10362 1 21.724000 13.577500 19.008500
10363 1 24.439500 13.577500 16.293000
10364 1 23.081750 12.219750 17.650750
10365 1 23.081750 14.935250 20.366250
10366 1 25.797250 12.219750 20.366250
10367 1 25.797250 14.935250 17.650750
10368 1 21.724000 13.577500 24.439500
10369 1 24.439500 10.862000 24.439500
10370 1 24.439500 13.577500 21.724000
10371 1 23.081750 12.219750 23.081750
10372 1 23.081750 14.935250 25.797250
10373 1 25.797250 12.219750 25.797250
10374 1 25.797250 14.935250 23.081750
10375 1 21.724000 10.862000 27.155000
10376 1 21.724000 13.577500 29.870500
10377 1 24.439500 10.862000 29.870500
10378 1 24.439500 13.577500 27.155000
10379 1 23.081750 12.219750 28.512750
10380 1 23.081750 14.935250 31.228250
10381 1 25.797250 12.219750 31.228250
10382 1 25.797250 14.935250 28.512750
10383 1 21.724000 10.862000 32.586000
10384 1 21.724000 13.577500 35.301500
10385 1 24.439500 10.862000 35.301500
10386 1 24.439500 13.577500 32.586000
10387 1 23.081750 12.219750 33.943750
10388 1 23.081750 14.935250 36.659250
10389 1 25.797250 12.219750 36.659250
10390 1 25.797250 14.935250 33.943750
10391 1 21.724000 10.862000 38.017000
10392 1 21.724000 13.577500 40.732500
10393 1 24.439500 10.862000 40.732500
10394 1 24.439500 13.577500 38.017000
10395 1 23.081750 12.219750 39.374750
10396 1 23.081750 14.935250 42.090250
10397 1 25.797250 12.219750 42.090250
10398 1 25.797250 14.935250 39.374750
10399 1 21.724000 13.577500 46.163500
10400 1 24.439500 13.577500 43.448000
10401 1 23.081750 12.219750 44.805750
10402 1 23.081750 14.935250 47.521250
10403 1 25.797250 12.219750 47.521250
10404 1 25.797250 14.935250 44.805750
10405 1 21.724000 13.577500 51.594500
10406 1 24.439500 13.577500 48.879000
10407 1 23.081750 12.219750 50.236750
10408 1 23.081750 14.935250 52.952250
10409 1 25.797250 12.219750 52.952250
10410 1 25.797250 14.935250 50.236750
10411 1 21.724000 13.577500 57.025500
10412 1 24.439500 13.577500 54.310000
10413 1 23.081750 12.219750 55.667750
10414 1 23.081750 14.935250 58.383250
10415 1 25.797250 12.219750 58.383250
10416 1 25.797250 14.935250 55.667750
10417 1 21.724000 13.577500 62.456500
10418 1 24.439500 13.577500 59.741000
10419 1 23.081750 12.219750 61.098750
10420 1 23.081750 14.935250 63.814250
10421 1 25.797250 12.219750 63.814250
10422 1 25.797250 14.935250 61.098750
10423 1 21.724000 13.577500 67.887500
10424 1 24.439500 10.862000 67.887500
10425 1 24.439500 13.577500 65.172000
10426 1 23.081750 12.219750 66.529750
10427 1 23.081750 14.935250 69.245250
10428 1 25.797250 12.219750 69.245250
10429 1 25.797250 14.935250 66.529750
10430 1 21.724000 10.862000 70.603000
10431 1 21.724000 13.577500 73.318500
10432 1 24.439500 10.862000 73.318500
10433 1 24.439500 13.577500 70.603000
10434 1 23.081750 12.219750 71.960750
10435 1 23.081750 14.935250 74.676250
10436 1 25.797250 12.219750 74.676250
10437 1 25.797250 14.935250 71.960750
10438 1 21.724000 10.862000 76.034000
10439 1 21.724000 13.577500 78.749500
10440 1 24.439500 10.862000 78.749500
10441 1 24.439500 13.577500 76.034000
10442 1 23.081750 12.219750 77.391750
10443 1 23.081750 14.935250 80.107250
10444 1 25.797250 12.219750 80.107250
10445 1 25.797250 14.935250 77.391750
10446 1 21.724000 10.862000 81.465000
10447 1 21.724000 13.577500 84.180500
10448 1 24.439500 10.862000 84.180500
10449 1 24.439500 13.577500 81.465000
10450 1 23.081750 12.219750 82.822750
10451 1 23.081750 14.935250 85.538250
10452 1 25.797250 12.219750 85.538250
10453 1 25.797250 14.935250 82.822750
10454 1 21.724000 13.577500 89.611500
10455 1 24.439500 13.577500 86.896000
10456 1 23.081750 12.219750 88.253750
10457 1 23.081750 14.935250 90.969250
10458 1 25.797250 12.219750 90.969250
10459 1 25.797250 14.935250 88.253750
10460 1 21.724000 13.577500 95.042500
10461 1 24.439500 13.577500 92.327000
10462 1 23.081750 12.219750 93.684750
10463 1 23.081750 14.935250 96.400250
10464 1 25.797250 12.219750 96.400250
10465 1 25.797250 14.935250 93.684750
10466 1 21.724000 13.577500 100.473500
10467 1 24.439500 13.577500 97.758000
10468 1 23.081750 12.219750 99.115750
10469 1 23.081750 14.935250 101.831250
10470 1 25.797250 12.219750 101.831250
10471 1 25.797250 14.935250 99.115750
10472 1 21.724000 13.577500 105.904500
10473 1 24.439500 13.577500 103.189000
10474 1 23.081750 12.219750 104.546750
10475 1 23.081750 14.935250 107.262250
10476 1 25.797250 12.219750 107.262250
10477 1 25.797250 14.935250 104.546750
10478 1 21.724000 13.577500 111.335500
10479 1 24.439500 10.862000 111.335500
10480 1 24.439500 13.577500 108.620000
10481 1 23.081750 12.219750 109.977750
10482 1 23.081750 14.935250 112.693250
10483 1 25.797250 12.219750 112.693250
10484 1 25.797250 14.935250 109.977750
10485 1 21.724000 10.862000 114.051000
10486 1 21.724000 13.577500 116.766500
10487 1 24.439500 10.862000 116.766500
10488 1 24.439500 13.577500 114.051000
10489 1 23.081750 12.219750 115.408750
10490 1 23.081750 14.935250 118.124250
10491 1 25.797250 12.219750 118.124250
10492 1 25.797250 14.935250 115.408750
10493 1 21.724000 10.862000 119.482000
10494 1 21.724000 13.577500 122.197500
10495 1 24.439500 10.862000 122.197500
10496 1 24.439500 13.577500 119.482000
10497 1 23.081750 12.219750 120.839750
10498 1 23.081750 14.935250 123.555250
10499 1 25.797250 12.219750 123.555250
10500 1 25.797250 14.935250 120.839750
10501 1 21.724000 10.862000 124.913000
10502 1 21.724000 13.577500 127.628500
10503 1 24.439500 10.862000 127.628500
10504 1 24.439500 13.577500 124.913000
10505 1 23.081750 12.219750 126.270750
10506 1 23.081750 14.935250 128.986250
10507 1 25.797250 12.219750 128.986250
10508 1 25.797250 14.935250 126.270750
10509 1 21.724000 13.577500 133.059500
10510 1 24.439500 13.577500 130.344000
10511 1 23.081750 12.219750 131.701750
10512 1 23.081750 14.935250 134.417250
10513 1 25.797250 12.219750 134.417250
10514 1 25.797250 14.935250 131.701750
10515 1 21.724000 13.577500 138.490500
10516 1 24.439500 13.577500 135.775000
10517 1 23.081750 12.219750 137.132750
10518 1 23.081750 14.935250 139.848250
10519 1 25.797250 12.219750 139.848250
10520 1 25.797250 14.935250 137.132750
10521 1 21.724000 13.577500 143.921500
10522 1 24.439500 13.577500 141.206000
10523 1 23.081750 12.219750 142.563750
10524 1 23.081750 14.935250 145.279250
10525 1 25.797250 12.219750 145.279250
10526 1 25.797250 14.935250 142.563750
10527 1 21.724000 13.577500 149.352500
10528 1 24.439500 13.577500 146.637000
10529 1 23.081750 12.219750 147.994750
10530 1 23.081750 14.935250 150.710250
10531 1 25.797250 12.219750 150.710250
10532 1 25.797250 14.935250 147.994750
10533 1 21.724000 13.577500 154.783500
10534 1 24.439500 10.862000 154.783500
10535 1 24.439500 13.577500 152.068000
10536 1 23.081750 12.219750 153.425750
10537 1 23.081750 14.935250 156.141250
10538 1 25.797250 12.219750 156.141250
10539 1 25.797250 14.935250 153.425750
10540 1 21.724000 10.862000 157.499000
10541 1 21.724000 13.577500 160.214500
10542 1 24.439500 10.862000 160.214500
10543 1 24.439500 13.577500 157.499000
10544 1 23.081750 12.219750 158.856750
10545 1 23.081750 14.935250 161.572250
10546 1 25.797250 12.219750 161.572250
10547 1 25.797250 14.935250 158.856750
10548 1 21.724000 10.862000 162.930000
10549 1 21.724000 13.577500 165.645500
10550 1 24.439500 10.862000 165.645500
10551 1 24.439500 13.577500 162.930000
10552 1 23.081750 12.219750 164.287750
10553 1 23.081750 14.935250 167.003250
10554 1 25.797250 12.219750 167.003250
10555 1 25.797250 14.935250 164.287750
10556 1 21.724000 10.862000 168.361000
10557 1 21.724000 13.577500 171.076500
10558 1 24.439500 10.862000 171.076500
10559 1 24.439500 13.577500 168.361000
10560 1 23.081750 12.219750 169.718750
10561 1 23.081750 14.935250 172.434250
10562 1 25.797250 12.219750 172.434250
10563 1 25.797250 14.935250 169.718750
10564 1 21.724000 13.577500 176.507500
10565 1 24.439500 13.577500 173.792000
10566 1 23.081750 12.219750 175.149750
10567 1 23.081750 14.935250 177.865250
10568 1 25.797250 12.219750 177.865250
10569 1 25.797250 14.935250 175.149750
10570 1 21.724000 13.577500 181.938500
10571 1 24.439500 13.577500 179.223000
10572 1 23.081750 12.219750 180.580750
10573 1 23.081750 14.935250 183.296250
10574 1 25.797250 12.219750 183.296250
10575 1 25.797250 14.935250 180.580750
10576 1 21.724000 13.577500 187.369500
10577 1 24.439500 13.577500 184.654000
10578 1 23.081750 12.219750 186.011750
10579 1 23.081750 14.935250 188.727250
10580 1 25.797250 12.219750 188.727250
10581 1 25.797250 14.935250 186.011750
10582 1 21.724000 13.577500 192.800500
10583 1 24.439500 13.577500 190.085000
10584 1 23.081750 12.219750 191.442750
10585 1 23.081750 14.935250 194.158250
10586 1 25.797250 12.219750 194.158250
10587 1 25.797250 14.935250 191.442750
10588 1 21.724000 13.577500 198.231500
10589 1 24.439500 10.862000 198.231500
10590 1 24.439500 13.577500 195.516000
10591 1 23.081750 12.219750 196.873750
10592 1 23.081750 14.935250 199.589250
10593 1 25.797250 12.219750 199.589250
10594 1 25.797250 14.935250 196.873750
10595 1 21.724000 10.862000 200.947000
10596 1 21.724000 13.577500 203.662500
10597 1 24.439500 10.862000 203.662500
10598 1 24.439500 13.577500 200.947000
10599 1 23.081750 12.219750 202.304750
10600 1 23.081750 14.935250 205.020250
10601 1 25.797250 12.219750 205.020250
10602 1 25.797250 14.935250 202.304750
10603 1 21.724000 10.862000 206.378000
10604 1 21.724000 13.577500 209.093500
10605 1 24.439500 10.862000 209.093500
10606 1 24.439500 13.577500 206.378000
10607 1 23.081750 12.219750 207.735750
10608 1 23.081750 14.935250 210.451250
10609 1 25.797250 12.219750 210.451250
10610 1 25.797250 14.935250 207.735750
10611 1 21.724000 10.862000 211.809000
10612 1 21.724000 13.577500 214.524500
10613 1 24.439500 10.862000 214.524500
10614 1 24.439500 13.577500 211.809000
10615 1 23.081750 12.219750 213.166750
10616 1 23.081750 14.935250 215.882250
10617 1 25.797250 12.219750 215.882250
10618 1 25.797250 14.935250 213.166750
10619 1 21.724000 13.577500 219.955500
10620 1 24.439500 13.577500 217.240000
10621 1 23.081750 12.219750 218.597750
10622 1 23.081750 14.935250 221.313250
10623 1 25.797250 12.219750 221.313250
10624 1 25.797250 14.935250 218.597750
10625 1 21.724000 13.577500 225.386500
10626 1 24.439500 13.577500 222.671000
10627 1 23.081750 12.219750 224.028750
10628 1 23.081750 14.935250 226.744250
10629 1 25.797250 12.219750 226.744250
10630 1 25.797250 14.935250 224.028750
10631 1 21.724000 13.577500 230.817500
10632 1 24.439500 13.577500 228.102000
10633 1 23.081750 12.219750 229.459750
10634 1 23.081750 14.935250 232.175250
10635 1 25.797250 12.219750 232.175250
10636 1 25.797250 14.935250 229.459750
10637 1 21.724000 13.577500 236.248500
10638 1 24.439500 13.577500 233.533000
10639 1 23.081750 12.219750 234.890750
10640 1 23.081750 14.935250 237.606250
10641 1 25.797250 12.219750 237.606250
10642 1 25.797250 14.935250 234.890750
10643 1 21.724000 13.577500 241.679500
10644 1 24.439500 10.862000 241.679500
10645 1 24.439500 13.577500 238.964000
10646 1 23.081750 12.219750 240.321750
10647 1 23.081750 14.935250 243.037250
10648 1 25.797250 12.219750 243.037250
10649 1 25.797250 14.935250 240.321750
10650 1 21.724000 10.862000 244.395000
10651 1 21.724000 13.577500 247.110500
10652 1 24.439500 10.862000 247.110500
10653 1 24.439500 13.577500 244.395000
10654 1 23.081750 12.219750 245.752750
10655 1 23.081750 14.935250 248.468250
10656 1 25.797250 12.219750 248.468250
10657 1 25.797250 14.935250 245.752750
10658 1 21.724000 10.862000 249.826000
10659 1 21.724000 13.577500 252.541500
10660 1 24.439500 10.862000 252.541500
10661 1 24.439500 13.577500 249.826000
10662 1 23.081750 12.219750 251.183750
10663 1 23.081750 14.935250 253.899250
10664 1 25.797250 12.219750 253.899250
10665 1 25.797250 14.935250 251.183750
10666 1 21.724000 10.862000 255.257000
10667 1 21.724000 13.577500 257.972500
10668 1 24.439500 10.862000 257.972500
10669 1 24.439500 13.577500 255.257000
10670 1 23.081750 12.219750 256.614750
10671 1 23.081750 14.935250 259.330250
10672 1 25.797250 12.219750 259.330250
10673 1 25.797250 14.935250 256.614750
10674 1 21.724000 16.293000 0.000000
10675 1 21.724000 19.008500 2.715500
10676 1 24.439500 16.293000 2.715500
10677 1 24.439500 19.008500 0.000000
10678 1 23.081750 17.650750 1.357750
10679 1 23.081750 20.366250 4.073250
10680 1 25.797250 17.650750 4.073250
10681 1 25.797250 20.366250 1.357750
10682 1 21.724000 16.293000 5.431000
10683 1 21.724000 19.008500 8.146500
10684 1 24.439500 16.293000 8.146500
10685 1 24.439500 19.008500 5.431000
10686 1 23.081750 17.650750 6.788750
10687 1 23.081750 20.366250 9.504250
10688 1 25.797250 17.650750 9.504250
10689 1 25.797250 20.366250 6.788750
10690 1 21.724000 16.293000 10.862000
10691 1 21.724000 19.008500 13.577500
10692 1 24.439500 16.293000 13.577500
10693 1 24.439500 19.008500 10.862000
10694 1 23.081750 17.650750 12.219750
10695 1 23.081750 20.366250 14.935250
10696 1 25.797250 17.650750 14.935250
10697 1 25.797250 20.366250 12.219750
10698 1 21.724000 16.293000 16.293000
10699 1 21.724000 19.008500 19.008500
10700 1 24.439500 16.293000 19.008500
10701 1 24.439500 19.008500 16.293000
10702 1 23.081750 17.650750 17.650750
10703 1 23.081750 20.366250 20.366250
10704 1 25.797250 17.650750 20.366250
10705 1 25.797250 20.366250 17.650750
10706 1 21.724000 19.008500 46.163500
10707 1 24.439500 16.293000 46.163500
10708 1 23.081750 17.650750 44.805750
10709 1 23.081750 20.366250 47.521250
10710 1 25.797250 17.650750 47.521250
10711 1 25.797250 20.366250 44.805750
10712 1 21.724000 16.293000 48.879000
10713 1 21.724000 19.008500 51.594500
10714 1 24.439500 16.293000 51.594500
10715 1 24.439500 19.008500 48.879000
10716 1 23.081750 17.650750 50.236750
10717 1 23.081750 20.366250 52.952250
10718 1 25.797250 17.650750 52.952250
10719 1 25.797250 20.366250 50.236750
10720 1 21.724000 16.293000 54.310000
10721 1 21.724000 19.008500 57.025500
10722 1 24.439500 16.293000 57.025500
10723 1 24.439500 19.008500 54.310000
10724 1 23.081750 17.650750 55.667750
10725 1 23.081750 20.366250 58.383250
10726 1 25.797250 17.650750 58.383250
10727 1 25.797250 20.366250 55.667750
10728 1 21.724000 16.293000 59.741000
10729 1 21.724000 19.008500 62.456500
10730 1 24.439500 16.293000 62.456500
10731 1 24.439500 19.008500 59.741000
10732 1 23.081750 17.650750 61.098750
10733 1 23.081750 20.366250 63.814250
10734 1 25.797250 17.650750 63.814250
10735 1 25.797250 20.366250 61.098750
10736 1 21.724000 19.008500 89.611500
10737 1 24.439500 16.293000 89.611500
10738 1 23.081750 17.650750 88.253750
10739 1 23.081750 20.366250 90.969250
10740 1 25.797250 17.650750 90.969250
10741 1 25.797250 20.366250 88.253750
10742 1 21.724000 16.293000 92.327000
10743 1 21.724000 19.008500 95.042500
10744 1 24.439500 16.293000 95.042500
10745 1 24.439500 19.008500 92.327000
10746 1 23.081750 17.650750 93.684750
10747 1 23.081750 20.366250 96.400250
10748 1 25.797250 17.650750 96.400250
10749 1 25.797250 20.366250 93.684750
10750 1 21.724000 16.293000 97.758000
10751 1 21.724000 19.008500 100.473500
10752 1 24.439500 16.293000 100.473500
10753 1 24.439500 19.008500 97.758000
10754 1 23.081750 17.650750 99.115750
10755 1 23.081750 20.366250 101.831250
10756 1 25.797250 17.650750 101.831250
10757 1 25.797250 20.366250 99.115750
10758 1 21.724000 16.293000 103.189000
10759 1 21.724000 19.008500 105.904500
10760 1 24.439500 16.293000 105.904500
10761 1 24.439500 19.008500 103.189000
10762 1 23.081750 17.650750 104.546750
10763 1 23.081750 20.366250 107.262250
10764 1 25.797250 17.650750 107.262250
10765 1 25.797250 20.366250 104.546750
10766 1 21.724000 19.008500 133.059500
10767 1 24.439500 16.293000 133.059500
10768 1 23.081750 17.650750 131.701750
10769 1 23.081750 20.366250 134.417250
10770 1 25.797250 17.650750 134.417250
10771 1 25.797250 20.366250 131.701750
10772 1 21.724000 16.293000 135.775000
10773 1 21.724000 19.008500 138.490500
10774 1 24.439500 16.293000 138.490500
10775 1 24.439500 19.008500 135.775000
10776 1 23.081750 17.650750 137.132750
10777 1 23.081750 20.366250 139.848250
10778 1 25.797250 17.650750 139.848250
10779 1 25.797250 20.366250 137.132750
10780 1 21.724000 16.293000 141.206000
10781 1 21.724000 19.008500 143.921500
10782 1 24.439500 16.293000 143.921500
10783 1 24.439500 19.008500 141.206000
10784 1 23.081750 17.650750 142.563750
10785 1 23.081750 20.366250 145.279250
10786 1 25.797250 17.650750 145.279250
10787 1 25.797250 20.366250 142.563750
10788 1 21.724000 16.293000 146.637000
10789 1 21.724000 19.008500 149.352500
10790 1 24.439500 16.293000 149.352500
10791 1 24.439500 19.008500 146.637000
10792 1 23.081750 17.650750 147.994750
10793 1 23.081750 20.366250 150.710250
10794 1 25.797250 17.650750 150.710250
10795 1 25.797250 20.366250 147.994750
10796 1 21.724000 19.008500 176.507500
10797 1 24.439500 16.293000 176.507500
10798 1 23.081750 17.650750 175.149750
10799 1 23.081750 20.366250 177.865250
10800 1 25.797250 17.650750 177.865250
10801 1 25.797250 20.366250 175.149750
10802 1 21.724000 16.293000 179.223000
10803 1 21.724000 19.008500 181.938500
10804 1 24.439500 16.293000 181.938500
10805 1 24.439500 19.008500 179.223000
10806 1 23.081750 17.650750 180.580750
10807 1 23.081750 20.366250 183.296250
10808 1 25.797250 17.650750 183.296250
10809 1 25.797250 20.366250 180.580750
10810 1 21.724000 16.293000 184.654000
10811 1 21.724000 19.008500 187.369500
10812 1 24.439500 16.293000 187.369500
10813 1 24.439500 19.008500 184.654000
10814 1 23.081750 17.650750 186.011750
10815 1 23.081750 20.366250 188.727250
10816 1 25.797250 17.650750 188.727250
10817 1 25.797250 20.366250 186.011750
10818 1 21.724000 16.293000 190.085000
10819 1 21.724000 19.008500 192.800500
10820 1 24.439500 16.293000 192.800500
10821 1 24.439500 19.008500 190.085000
10822 1 23.081750 17.650750 191.442750
10823 1 23.081750 20.366250 194.158250
10824 1 25.797250 17.650750 194.158250
10825 1 25.797250 20.366250 191.442750
10826 1 21.724000 19.008500 219.955500
10827 1 24.439500 16.293000 219.955500
10828 1 23.081750 17.650750 218.597750
10829 1 23.081750 20.366250 221.313250
10830 1 25.797250 17.650750 221.313250
10831 1 25.797250 20.366250 218.597750
10832 1 21.724000 16.293000 222.671000
10833 1 21.724000 19.008500 225.386500
10834 1 24.439500 16.293000 225.386500
10835 1 24.439500 19.008500 222.671000
10836 1 23.081750 17.650750 224.028750
10837 1 23.081750 20.366250 226.744250
10838 1 25.797250 17.650750 226.744250
10839 1 25.797250 20.366250 224.028750
10840 1 21.724000 16.293000 228.102000
10841 1 21.724000 19.008500 230.817500
10842 1 24.439500 16.293000 230.817500
10843 1 24.439500 19.008500 228.102000
10844 1 23.081750 17.650750 229.459750
10845 1 23.081750 20.366250 232.175250
10846 1 25.797250 17.650750 232.175250
10847 1 25.797250 20.366250 229.459750
10848 1 21.724000 16.293000 233.533000
10849 1 21.724000 19.008500 236.248500
10850 1 24.439500 16.293000 236.248500
10851 1 24.439500 19.008500 233.533000
10852 1 23.081750 17.650750 234.890750
10853 1 23.081750 20.366250 237.606250
10854 1 25.797250 17.650750 237.606250
10855 1 25.797250 20.366250 234.890750
10856 1 21.724000 21.724000 0.000000
10857 1 21.724000 24.439500 2.715500
10858 1 24.439500 21.724000 2.715500
10859 1 24.439500 24.439500 0.000000
10860 1 23.081750 23.081750 1.357750
10861 1 23.081750 25.797250 4.073250
10862 1 25.797250 23.081750 4.073250
10863 1 25.797250 25.797250 1.357750
10864 1 21.724000 21.724000 5.431000
10865 1 21.724000 24.439500 8.146500
10866 1 24.439500 21.724000 8.146500
10867 1 24.439500 24.439500 5.431000
10868 1 23.081750 23.081750 6.788750
10869 1 23.081750 25.797250 9.504250
10870 1 25.797250 23.081750 9.504250
10871 1 25.797250 25.797250 6.788750
10872 1 21.724000 21.724000 10.862000
10873 1 21.724000 24.439500 13.577500
10874 1 24.439500 21.724000 13.577500
10875 1 24.439500 24.439500 10.862000
10876 1 23.081750 23.081750 12.219750
10877 1 23.081750 25.797250 14.935250
10878 1 25.797250 23.081750 14.935250
10879 1 25.797250 25.797250 12.219750
10880 1 21.724000 21.724000 16.293000
10881 1 21.724000 24.439500 19.008500
10882 1 24.439500 21.724000 19.008500
10883 1 24.439500 24.439500 16.293000
10884 1 23.081750 23.081750 17.650750
10885 1 23.081750 25.797250 20.366250
10886 1 25.797250 23.081750 20.366250
10887 1 25.797250 25.797250 17.650750
10888 1 21.724000 24.439500 46.163500
10889 1 24.439500 21.724000 46.163500
10890 1 23.081750 23.081750 44.805750
10891 1 23.081750 25.797250 47.521250
10892 1 25.797250 23.081750 47.521250
10893 1 25.797250 25.797250 44.805750
10894 1 21.724000 21.724000 48.879000
10895 1 21.724000 24.439500 51.594500
10896 1 24.439500 21.724000 51.594500
10897 1 24.439500 24.439500 48.879000
10898 1 23.081750 23.081750 50.236750
10899 1 23.081750 25.797250 52.952250
10900 1 25.797250 23.081750 52.952250
10901 1 25.797250 25.797250 50.236750
10902 1 21.724000 21.724000 54.310000
10903 1 21.724000 24.439500 57.025500
10904 1 24.439500 21.724000 57.025500
10905 1 24.439500 24.439500 54.310000
10906 1 23.081750 23.081750 55.667750
10907 1 23.081750 25.797250 58.383250
10908 1 25.797250 23.081750 58.383250
10909 1 25.797250 25.797250 55.667750
10910 1 21.724000 21.724000 59.741000
10911 1 21.724000 24.439500 62.456500
10912 1 24.439500 21.724000 62.456500
10913 1 24.439500 24.439500 59.741000
10914 1 23.081750 23.081750 61.098750
10915 1 23.081750 25.797250 63.814250
10916 1 25.797250 23.081750 63.814250
10917 1 25.797250 25.797250 61.098750
10918 1 21.724000 24.439500 89.611500
10919 1 24.439500 21.724000 89.611500
10920 1 23.081750 23.081750 88.253750
10921 1 23.081750 25.797250 90.969250
10922 1 25.797250 23.081750 90.969250
10923 1 25.797250 25.797250 88.253750
10924 1 21.724000 21.724000 92.327000
10925 1 21.724000 24.439500 95.042500
10926 1 24.439500 21.724000 95.042500
10927 1 24.439500 24.439500 92.327000
10928 1 23.081750 23.081750 93.684750
10929 1 23.081750 25.797250 96.400250
10930 1 25.797250 23.081750 96.400250
10931 1 25.797250 25.797250 93.684750
10932 1 21.724000 21.724000 97.758000
10933 1 21.724000 24.439500 100.473500
10934 1 24.439500 21.724000 100.473500
10935 1 24.439500 24.439500 97.758000
10936 1 23.081750 23.081750 99.115750
10937 1 23.081750 25.797250 101.831250
10938 1 25.797250 23.081750 101.831250
10939 1 25.797250 25.797250 99.115750
10940 1 21.724000 21.724000 103.189000
10941 1 21.724000 24.439500 105.904500
10942 1 24.439500 21.724000 105.904500
10943 1 24.439500 24.439500 103.189000
10944 1 23.081750 23.081750 104.546750
10945 1 23.081750 25.797250 107.262250
10946 1 25.797250 23.081750 107.262250
10947 1 25.797250 25.797250 104.546750
10948 1 21.724000 24.439500 133.059500
10949 1 24.439500 21.724000 133.059500
10950 1 23.081750 23.081750 131.701750
10951 1 23.081750 25.797250 134.417250
10952 1 25.797250 23.081750 134.417250
10953 1 25.797250 25.797250 131.701750
10954 1 21.724000 21.724000 135.775000
10955 1 21.724000 24.439500 138.490500
10956 1 24.439500 21.724000 138.490500
10957 1 24.439500 24.439500 135.775000
10958 1 23.081750 23.081750 137.132750
10959 1 23.081750 25.797250 139.848250
10960 1 25.797250 23.081750 139.848250
10961 1 25.797250 25.797250 137.132750
10962 1 21.724000 21.724000 141.206000
10963 1 21.724000 24.439500 143.921500
10964 1 24.439500 21.724000 143.921500
10965 1 24.439500 24.439500 141.206000
10966 1 23.081750 23.081750 142.563750
10967 1 23.081750 25.797250 145.279250
10968 1 25.797250 23.081750 145.279250
10969 1 25.797250 25.797250 142.563750
10970 1 21.724000 21.724000 146.637000
10971 1 21.724000 24.439500 149.352500
10972 1 24.439500 21.724000 149.352500
10973 1 24.439500 24.439500 146.637000
10974 1 23.081750 23.081750 147.994750
10975 1 23.081750 25.797250 150.710250
10976 1 25.797250 23.081750 150.710250
10977 1 25.797250 25.797250 147.994750
10978 1 21.724000 24.439500 176.507500
10979 1 24.439500 21.724000 176.507500
10980 1 23.081750 23.081750 175.149750
10981 1 23.081750 25.797250 177.865250
10982 1 25.797250 23.081750 177.865250
10983 1 25.797250 25.797250 175.149750
10984 1 21.724000 21.724000 179.223000
10985 1 21.724000 24.439500 181.938500
10986 1 24.439500 21.724000 181.938500
10987 1 24.439500 24.439500 179.223000
10988 1 23.081750 23.081750 180.580750
10989 1 23.081750 25.797250 183.296250
10990 1 25.797250 23.081750 183.296250
10991 1 25.797250 25.797250 180.580750
10992 1 21.724000 21.724000 184.654000
10993 1 21.724000 24.439500 187.369500
10994 1 24.439500 21.724000 187.369500
10995 1 24.439500 24.439500 184.654000
10996 1 23.081750 23.081750 186.011750
10997 1 23.081750 25.797250 188.727250
10998 1 25.797250 23.081750 188.727250
10999 1 25.797250 25.797250 186.011750
11000 1 21.724000 21.724000 190.085000
11001 1 21.724000 24.439500 192.800500
11002 1 24.439500 21.724000 192.800500
11003 1 24.439500 24.439500 190.085000
11004 1 23.081750 23.081750 191.442750
11005 1 23.081750 25.797250 194.158250
11006 1 25.797250 23.081750 194.158250
11007 1 25.797250 25.797250 191.442750
11008 1 21.724000 24.439500 219.955500
11009 1 24.439500 21.724000 219.955500
11010 1 23.081750 23.081750 218.597750
11011 1 23.081750 25.797250 221.313250
11012 1 25.797250 23.081750 221.313250
11013 1 25.797250 25.797250 218.597750
11014 1 21.724000 21.724000 222.671000
11015 1 21.724000 24.439500 225.386500
11016 1 24.439500 21.724000 225.386500
11017 1 24.439500 24.439500 222.671000
11018 1 23.081750 23.081750 224.028750
11019 1 23.081750 25.797250 226.744250
11020 1 25.797250 23.081750 226.744250
11021 1 25.797250 25.797250 224.028750
11022 1 21.724000 21.724000 228.102000
11023 1 21.724000 24.439500 230.817500
11024 1 24.439500 21.724000 230.817500
11025 1 24.439500 24.439500 228.102000
11026 1 23.081750 23.081750 229.459750
11027 1 23.081750 25.797250 232.175250
11028 1 25.797250 23.081750 232.175250
11029 1 25.797250 25.797250 229.459750
11030 1 21.724000 21.724000 233.533000
11031 1 21.724000 24.439500 236.248500
11032 1 24.439500 21.724000 236.248500
11033 1 24.439500 24.439500 233.533000
11034 1 23.081750 23.081750 234.890750
11035 1 23.081750 25.797250 237.606250
11036 1 25.797250 23.081750 237.606250
11037 1 25.797250 25.797250 234.890750
11038 1 21.724000 27.155000 0.000000
11039 1 21.724000 29.870500 2.715500
11040 1 24.439500 27.155000 2.715500
11041 1 24.439500 29.870500 0.000000
11042 1 23.081750 28.512750 1.357750
11043 1 23.081750 31.228250 4.073250
11044 1 25.797250 28.512750 4.073250
11045 1 25.797250 31.228250 1.357750
11046 1 21.724000 27.155000 5.431000
11047 1 21.724000 29.870500 8.146500
11048 1 24.439500 27.155000 8.146500
11049 1 24.439500 29.870500 5.431000
11050 1 23.081750 28.512750 6.788750
11051 1 23.081750 31.228250 9.504250
11052 1 25.797250 28.512750 9.504250
11053 1 25.797250 31.228250 6.788750
11054 1 21.724000 27.155000 10.862000
11055 1 21.724000 29.870500 13.577500
11056 1 24.439500 27.155000 13.577500
11057 1 24.439500 29.870500 10.862000
11058 1 23.081750 28.512750 12.219750
11059 1 23.081750 31.228250 14.935250
11060 1 25.797250 28.512750 14.935250
11061 1 25.797250 31.228250 12.219750
11062 1 21.724000 27.155000 16.293000
11063 1 21.724000 29.870500 19.008500
11064 1 24.439500 27.155000 19.008500
11065 1 24.439500 29.870500 16.293000
11066 1 23.081750 28.512750 17.650750
11067 1 23.081750 31.228250 20.366250
11068 1 25.797250 28.512750 20.366250
11069 1 25.797250 31.228250 17.650750
11070 1 21.724000 29.870500 24.439500
11071 1 24.439500 29.870500 21.724000
11072 1 23.081750 28.512750 23.081750
11073 1 23.081750 31.228250 25.797250
11074 1 25.797250 28.512750 25.797250
11075 1 25.797250 31.228250 23.081750
11076 1 21.724000 29.870500 29.870500
11077 1 24.439500 29.870500 27.155000
11078 1 23.081750 28.512750 28.512750
11079 1 23.081750 31.228250 31.228250
11080 1 25.797250 28.512750 31.228250
11081 1 25.797250 31.228250 28.512750
11082 1 21.724000 29.870500 35.301500
11083 1 24.439500 29.870500 32.586000
11084 1 23.081750 28.512750 33.943750
11085 1 23.081750 31.228250 36.659250
11086 1 25.797250 28.512750 36.659250
11087 1 25.797250 31.228250 33.943750
11088 1 21.724000 29.870500 40.732500
11089 1 24.439500 29.870500 38.017000
11090 1 23.081750 28.512750 39.374750
11091 1 23.081750 31.228250 42.090250
11092 1 25.797250 28.512750 42.090250
11093 1 25.797250 31.228250 39.374750
11094 1 21.724000 29.870500 46.163500
11095 1 24.439500 27.155000 46.163500
11096 1 24.439500 29.870500 43.448000
11097 1 23.081750 28.512750 44.805750
11098 1 23.081750 31.228250 47.521250
11099 1 25.797250 28.512750 47.521250
11100 1 25.797250 31.228250 44.805750
11101 1 21.724000 27.155000 48.879000
11102 1 21.724000 29.870500 51.594500
11103 1 24.439500 27.155000 51.594500
11104 1 24.439500 29.870500 48.879000
11105 1 23.081750 28.512750 50.236750
11106 1 23.081750 31.228250 52.952250
11107 1 25.797250 28.512750 52.952250
11108 1 25.797250 31.228250 50.236750
11109 1 21.724000 27.155000 54.310000
11110 1 21.724000 29.870500 57.025500
11111 1 24.439500 27.155000 57.025500
11112 1 24.439500 29.870500 54.310000
11113 1 23.081750 28.512750 55.667750
11114 1 23.081750 31.228250 58.383250
11115 1 25.797250 28.512750 58.383250
11116 1 25.797250 31.228250 55.667750
11117 1 21.724000 27.155000 59.741000
11118 1 21.724000 29.870500 62.456500
11119 1 24.439500 27.155000 62.456500
11120 1 24.439500 29.870500 59.741000
11121 1 23.081750 28.512750 61.098750
11122 1 23.081750 31.228250 63.814250
11123 1 25.797250 28.512750 63.814250
11124 1 25.797250 31.228250 61.098750
11125 1 21.724000 29.870500 67.887500
11126 1 24.439500 29.870500 65.172000
11127 1 23.081750 28.512750 66.529750
11128 1 23.081750 31.228250 69.245250
11129 1 25.797250 28.512750 69.245250
11130 1 25.797250 31.228250 66.529750
11131 1 21.724000 29.870500 73.318500
11132 1 24.439500 29.870500 70.603000
11133 1 23.081750 28.512750 71.960750
11134 1 23.081750 31.228250 74.676250
11135 1 25.797250 28.512750 74.676250
11136 1 25.797250 31.228250 71.960750
11137 1 21.724000 29.870500 78.749500
11138 1 24.439500 29.870500 76.034000
11139 1 23.081750 28.512750 77.391750
11140 1 23.081750 31.228250 80.107250
11141 1 25.797250 28.512750 80.107250
11142 1 25.797250 31.228250 77.391750
11143 1 21.724000 29.870500 84.180500
11144 1 24.439500 29.870500 81.465000
11145 1 23.081750 28.512750 82.822750
11146 1 23.081750 31.228250 85.538250
11147 1 25.797250 28.512750 85.538250
11148 1 25.797250 31.228250 82.822750
11149 1 21.724000 29.870500 89.611500
11150 1 24.439500 27.155000 89.611500
11151 1 24.439500 29.870500 86.896000
11152 1 23.081750 28.512750 88.253750
11153 1 23.081750 31.228250 90.969250
11154 1 25.797250 28.512750 90.969250
11155 1 25.797250 31.228250 88.253750
11156 1 21.724000 27.155000 92.327000
11157 1 21.724000 29.870500 95.042500
11158 1 24.439500 27.155000 95.042500
11159 1 24.439500 29.870500 92.327000
11160 1 23.081750 28.512750 93.684750
11161 1 23.081750 31.228250 96.400250
11162 1 25.797250 28.512750 96.400250
11163 1 25.797250 31.228250 93.684750
11164 1 21.724000 27.155000 97.758000
11165 1 21.724000 29.870500 100.473500
11166 1 24.439500 27.155000 100.473500
11167 1 24.439500 29.870500 97.758000
11168 1 23.081750 28.512750 99.115750
11169 1 23.081750 31.228250 101.831250
11170 1 25.797250 28.512750 101.831250
11171 1 25.797250 31.228250 99.115750
11172 1 21.724000 27.155000 103.189000
11173 1 21.724000 29.870500 105.904500
11174 1 24.439500 27.155000 105.904500
11175 1 24.439500 29.870500 103.189000
11176 1 23.081750 28.512750 104.546750
11177 1 23.081750 31.228250 107.262250
11178 1 25.797250 28.512750 107.262250
11179 1 25.797250 31.228250 104.546750
11180 1 21.724000 29.870500 111.335500
11181 1 24.439500 29.870500 108.620000
11182 1 23.081750 28.512750 109.977750
11183 1 23.081750 31.228250 112.693250
11184 1 25.797250 28.512750 112.693250
11185 1 25.797250 31.228250 109.977750
11186 1 21.724000 29.870500 116.766500
11187 1 24.439500 29.870500 114.051000
11188 1 23.081750 28.512750 115.408750
11189 1 23.081750 31.228250 118.124250
11190 1 25.797250 28.512750 118.124250
11191 1 25.797250 31.228250 115.408750
11192 1 21.724000 29.870500 122.197500
11193 1 24.439500 29.870500 119.482000
11194 1 23.081750 28.512750 120.839750
11195 1 23.081750 31.228250 123.555250
11196 1 25.797250 28.512750 123.555250
11197 1 25.797250 31.228250 120.839750
11198 1 21.724000 29.870500 127.628500
11199 1 24.439500 29.870500 124.913000
11200 1 23.081750 28.512750 126.270750
11201 1 23.081750 31.228250 128.986250
11202 1 25.797250 28.512750 128.986250
11203 1 25.797250 31.228250 126.270750
11204 1 21.724000 29.870500 133.059500
11205 1 24.439500 27.155000 133.059500
11206 1 24.439500 29.870500 130.344000
11207 1 23.081750 28.512750 131.701750
11208 1 23.081750 31.228250 134.417250
11209 1 25.797250 28.512750 134.417250
11210 1 25.797250 31.228250 131.701750
11211 1 21.724000 27.155000 135.775000
11212 1 21.724000 29.870500 138.490500
11213 1 24.439500 27.155000 138.490500
11214 1 24.439500 29.870500 135.775000
11215 1 23.081750 28.512750 137.132750
11216 1 23.081750 31.228250 139.848250
11217 1 25.797250 28.512750 139.848250
11218 1 25.797250 31.228250 137.132750
11219 1 21.724000 27.155000 141.206000
11220 1 21.724000 29.870500 143.921500
11221 1 24.439500 27.155000 143.921500
11222 1 24.439500 29.870500 141.206000
11223 1 23.081750 28.512750 142.563750
11224 1 23.081750 31.228250 145.279250
11225 1 25.797250 28.512750 145.279250
11226 1 25.797250 31.228250 142.563750
11227 1 21.724000 27.155000 146.637000
11228 1 21.724000 29.870500 149.352500
11229 1 24.439500 27.155000 149.352500
11230 1 24.439500 29.870500 146.637000
11231 1 23.081750 28.512750 147.994750
11232 1 23.081750 31.228250 150.710250
11233 1 25.797250 28.512750 150.710250
11234 1 25.797250 31.228250 147.994750
11235 1 21.724000 29.870500 154.783500
11236 1 24.439500 29.870500 152.068000
11237 1 23.081750 28.512750 153.425750
11238 1 23.081750 31.228250 156.141250
11239 1 25.797250 28.512750 156.141250
11240 1 25.797250 31.228250 153.425750
11241 1 21.724000 29.870500 160.214500
11242 1 24.439500 29.870500 157.499000
11243 1 23.081750 28.512750 158.856750
11244 1 23.081750 31.228250 161.572250
11245 1 25.797250 28.512750 161.572250
11246 1 25.797250 31.228250 158.856750
11247 1 21.724000 29.870500 165.645500
11248 1 24.439500 29.870500 162.930000
11249 1 23.081750 28.512750 164.287750
11250 1 23.081750 31.228250 167.003250
11251 1 25.797250 28.512750 167.003250
11252 1 25.797250 31.228250 164.287750
11253 1 21.724000 29.870500 171.076500
11254 1 24.439500 29.870500 168.361000
11255 1 23.081750 28.512750 169.718750
11256 1 23.081750 31.228250 172.434250
11257 1 25.797250 28.512750 172.434250
11258 1 25.797250 31.228250 169.718750
11259 1 21.724000 29.870500 176.507500
11260 1 24.439500 27.155000 176.507500
11261 1 24.439500 29.870500 173.792000
11262 1 23.081750 28.512750 175.149750
11263 1 23.081750 31.228250 177.865250
11264 1 25.797250 28.512750 177.865250
11265 1 25.797250 31.228250 175.149750
11266 1 21.724000 27.155000 179.223000
11267 1 21.724000 29.870500 181.938500
11268 1 24.439500 27.155000 181.938500
11269 1 24.439500 29.870500 179.223000
11270 1 23.081750 28.512750 180.580750
11271 1 23.081750 31.228250 183.296250
11272 1 25.797250 28.512750 183.296250
11273 1 25.797250 31.228250 180.580750
11274 1 21.724000 27.155000 184.654000
11275 1 21.724000 29.870500 187.369500
11276 1 24.439500 27.155000 187.369500
11277 1 24.439500 29.870500 184.654000
11278 1 23.081750 28.512750 186.011750
11279 1 23.081750 31.228250 188.727250
11280 1 25.797250 28.512750 188.727250
11281 1 25.797250 31.228250 186.011750
11282 1 21.724000 27.155000 190.085000
11283 1 21.724000 29.870500 192.800500
11284 1 24.439500 27.155000 192.800500
11285 1 24.439500 29.870500 190.085000
11286 1 23.081750 28.512750 191.442750
11287 1 23.081750 31.228250 194.158250
11288 1 25.797250 28.512750 194.158250
11289 1 25.797250 31.228250 191.442750
11290 1 21.724000 29.870500 198.231500
11291 1 24.439500 29.870500 195.516000
11292 1 23.081750 28.512750 196.873750
11293 1 23.081750 31.228250 199.589250
11294 1 25.797250 28.512750 199.589250
11295 1 25.797250 31.228250 196.873750
11296 1 21.724000 29.870500 203.662500
11297 1 24.439500 29.870500 200.947000
11298 1 23.081750 28.512750 202.304750
11299 1 23.081750 31.228250 205.020250
11300 1 25.797250 28.512750 205.020250
11301 1 25.797250 31.228250 202.304750
11302 1 21.724000 29.870500 209.093500
11303 1 24.439500 29.870500 206.378000
11304 1 23.081750 28.512750 207.735750
11305 1 23.081750 31.228250 210.451250
11306 1 25.797250 28.512750 210.451250
11307 1 25.797250 31.228250 207.735750
11308 1 21.724000 29.870500 214.524500
11309 1 24.439500 29.870500 211.809000
11310 1 23.081750 28.512750 213.166750
11311 1 23.081750 31.228250 215.882250
11312 1 25.797250 28.512750 215.882250
11313 1 25.797250 31.228250 213.166750
11314 1 21.724000 29.870500 219.955500
11315 1 24.439500 27.155000 219.955500
11316 1 24.439500 29.870500 217.240000
11317 1 23.081750 28.512750 218.597750
11318 1 23.081750 31.228250 221.313250
11319 1 25.797250 28.512750 221.313250
11320 1 25.797250 31.228250 218.597750
11321 1 21.724000 27.155000 222.671000
11322 1 21.724000 29.870500 225.386500
11323 1 24.439500 27.155000 225.386500
11324 1 24.439500 29.870500 222.671000
11325 1 23.081750 28.512750 224.028750
11326 1 23.081750 31.228250 226.744250
11327 1 25.797250 28.512750 226.744250
11328 1 25.797250 31.228250 224.028750
11329 1 21.724000 27.155000 228.102000
11330 1 21.724000 29.870500 230.817500
11331 1 24.439500 27.155000 230.817500
11332 1 24.439500 29.870500 228.102000
11333 1 23.081750 28.512750 229.459750
11334 1 23.081750 31.228250 232.175250
11335 1 25.797250 28.512750 232.175250
11336 1 25.797250 31.228250 229.459750
11337 1 21.724000 27.155000 233.533000
11338 1 21.724000 29.870500 236.248500
11339 1 24.439500 27.155000 236.248500
11340 1 24.439500 29.870500 233.533000
11341 1 23.081750 28.512750 234.890750
11342 1 23.081750 31.228250 237.606250
11343 1 25.797250 28.512750 237.606250
11344 1 25.797250 31.228250 234.890750
11345 1 21.724000 29.870500 241.679500
11346 1 24.439500 29.870500 238.964000
11347 1 23.081750 28.512750 240.321750
11348 1 23.081750 31.228250 243.037250
11349 1 25.797250 28.512750 243.037250
11350 1 25.797250 31.228250 240.321750
11351 1 21.724000 29.870500 247.110500
11352 1 24.439500 29.870500 244.395000
11353 1 23.081750 28.512750 245.752750
11354 1 23.081750 31.228250 248.468250
11355 1 25.797250 28.512750 248.468250
11356 1 25.797250 31.228250 245.752750
11357 1 21.724000 29.870500 252.541500
11358 1 24.439500 29.870500 249.826000
11359 1 23.081750 28.512750 251.183750
11360 1 23.081750 31.228250 253.899250
11361 1 25.797250 28.512750 253.899250
11362 1 25.797250 31.228250 251.183750
11363 1 21.724000 29.870500 257.972500
11364 1 24.439500 29.870500 255.257000
11365 1 23.081750 28.512750 256.614750
11366 1 23.081750 31.228250 259.330250
11367 1 25.797250 28.512750 259.330250
11368 1 25.797250 31.228250 256.614750
11369 1 21.724000 32.586000 0.000000
11370 1 21.724000 35.301500 2.715500
11371 1 24.439500 32.586000 2.715500
11372 1 24.439500 35.301500 0.000000
11373 1 23.081750 33.943750 1.357750
11374 1 23.081750 36.659250 4.073250
11375 1 25.797250 33.943750 4.073250
11376 1 25.797250 36.659250 1.357750
11377 1 21.724000 32.586000 5.431000
11378 1 21.724000 35.301500 8.146500
11379 1 24.439500 32.586000 8.146500
11380 1 24.439500 35.301500 5.431000
11381 1 23.081750 33.943750 6.788750
11382 1 23.081750 36.659250 9.504250
11383 1 25.797250 33.943750 9.504250
11384 1 25.797250 36.659250 6.788750
11385 1 21.724000 32.586000 10.862000
11386 1 21.724000 35.301500 13.577500
11387 1 24.439500 32.586000 13.577500
11388 1 24.439500 35.301500 10.862000
11389 1 23.081750 33.943750 12.219750
11390 1 23.081750 36.659250 14.935250
11391 1 25.797250 33.943750 14.935250
11392 1 25.797250 36.659250 12.219750
11393 1 21.724000 32.586000 16.293000
11394 1 21.724000 35.301500 19.008500
11395 1 24.439500 32.586000 19.008500
11396 1 24.439500 35.301500 16.293000
11397 1 23.081750 33.943750 17.650750
11398 1 23.081750 36.659250 20.366250
11399 1 25.797250 33.943750 20.366250
11400 1 25.797250 36.659250 17.650750
11401 1 21.724000 32.586000 21.724000
11402 1 21.724000 35.301500 24.439500
11403 1 24.439500 32.586000 24.439500
11404 1 24.439500 35.301500 21.724000
11405 1 23.081750 33.943750 23.081750
11406 1 23.081750 36.659250 25.797250
11407 1 25.797250 33.943750 25.797250
11408 1 25.797250 36.659250 23.081750
11409 1 21.724000 32.586000 27.155000
11410 1 21.724000 35.301500 29.870500
11411 1 24.439500 32.586000 29.870500
11412 1 24.439500 35.301500 27.155000
11413 1 23.081750 33.943750 28.512750
11414 1 23.081750 36.659250 31.228250
11415 1 25.797250 33.943750 31.228250
11416 1 25.797250 36.659250 28.512750
11417 1 21.724000 32.586000 32.586000
11418 1 21.724000 35.301500 35.301500
11419 1 24.439500 32.586000 35.301500
11420 1 24.439500 35.301500 32.586000
11421 1 23.081750 33.943750 33.943750
11422 1 23.081750 36.659250 36.659250
11423 1 25.797250 33.943750 36.659250
11424 1 25.797250 36.659250 33.943750
11425 1 21.724000 32.586000 38.017000
11426 1 21.724000 35.301500 40.732500
11427 1 24.439500 32.586000 40.732500
11428 1 24.439500 35.301500 38.017000
11429 1 23.081750 33.943750 39.374750
11430 1 23.081750 36.659250 42.090250
11431 1 25.797250 33.943750 42.090250
11432 1 25.797250 36.659250 39.374750
11433 1 21.724000 32.586000 43.448000
11434 1 21.724000 35.301500 46.163500
11435 1 24.439500 32.586000 46.163500
11436 1 24.439500 35.301500 43.448000
11437 1 23.081750 33.943750 44.805750
11438 1 23.081750 36.659250 47.521250
11439 1 25.797250 33.943750 47.521250
11440 1 25.797250 36.659250 44.805750
11441 1 21.724000 32.586000 48.879000
11442 1 21.724000 35.301500 51.594500
11443 1 24.439500 32.586000 51.594500
11444 1 24.439500 35.301500 48.879000
11445 1 23.081750 33.943750 50.236750
11446 1 23.081750 36.659250 52.952250
11447 1 25.797250 33.943750 52.952250
11448 1 25.797250 36.659250 50.236750
11449 1 21.724000 32.586000 54.310000
11450 1 21.724000 35.301500 57.025500
11451 1 24.439500 32.586000 57.025500
11452 1 24.439500 35.301500 54.310000
11453 1 23.081750 33.943750 55.667750
11454 1 23.081750 36.659250 58.383250
11455 1 25.797250 33.943750 58.383250
11456 1 25.797250 36.659250 55.667750
11457 1 21.724000 32.586000 59.741000
11458 1 21.724000 35.301500 62.456500
11459 1 24.439500 32.586000 62.456500
11460 1 24.439500 35.301500 59.741000
11461 1 23.081750 33.943750 61.098750
11462 1 23.081750 36.659250 63.814250
11463 1 25.797250 33.943750 63.814250
11464 1 25.797250 36.659250 61.098750
11465 1 21.724000 32.586000 65.172000
11466 1 21.724000 35.301500 67.887500
11467 1 24.439500 32.586000 67.887500
11468 1 24.439500 35.301500 65.172000
11469 1 23.081750 33.943750 66.529750
11470 1 23.081750 36.659250 69.245250
11471 1 25.797250 33.943750 69.245250
11472 1 25.797250 36.659250 66.529750
11473 1 21.724000 32.586000 70.603000
11474 1 21.724000 35.301500 73.318500
11475 1 24.439500 32.586000 73.318500
11476 1 24.439500 35.301500 70.603000
11477 1 23.081750 33.943750 71.960750
11478 1 23.081750 36.659250 74.676250
11479 1 25.797250 33.943750 74.676250
11480 1 25.797250 36.659250 71.960750
11481 1 21.724000 32.586000 76.034000
11482 1 21.724000 35.301500 78.749500
11483 1 24.439500 32.586000 78.749500
11484 1 24.439500 35.301500 76.034000
11485 1 23.081750 33.943750 77.391750
11486 1 23.081750 36.659250 80.107250
11487 1 25.797250 33.943750 80.107250
11488 1 25.797250 36.659250 77.391750
11489 1 21.724000 32.586000 81.465000
11490 1 21.724000 35.301500 84.180500
11491 1 24.439500 32.586000 84.180500
11492 1 24.439500 35.301500 81.465000
11493 1 23.081750 33.943750 82.822750
11494 1 23.081750 36.659250 85.538250
11495 1 25.797250 33.943750 85.538250
11496 1 25.797250 36.659250 82.822750
11497 1 21.724000 32.586000 86.896000
11498 1 21.724000 35.301500 89.611500
11499 1 24.439500 32.586000 89.611500
11500 1 24.439500 35.301500 86.896000
11501 1 23.081750 33.943750 88.253750
11502 1 23.081750 36.659250 90.969250
11503 1 25.797250 33.943750 90.969250
11504 1 25.797250 36.659250 88.253750
11505 1 21.724000 32.586000 92.327000
11506 1 21.724000 35.301500 95.042500
11507 1 24.439500 32.586000 95.042500
11508 1 24.439500 35.301500 92.327000
11509 1 23.081750 33.943750 93.684750
11510 1 23.081750 36.659250 96.400250
11511 1 25.797250 33.943750 96.400250
11512 1 25.797250 36.659250 93.684750
11513 1 21.724000 32.586000 97.758000
11514 1 21.724000 35.301500 100.473500
11515 1 24.439500 32.586000 100.473500
11516 1 24.439500 35.301500 97.758000
11517 1 23.081750 33.943750 99.115750
11518 1 23.081750 36.659250 101.831250
11519 1 25.797250 33.943750 101.831250
11520 1 25.797250 36.659250 99.115750
11521 1 21.724000 32.586000 103.189000
11522 1 21.724000 35.301500 105.904500
11523 1 24.439500 32.586000 105.904500
11524 1 24.439500 35.301500 103.189000
11525 1 23.081750 33.943750 104.546750
11526 1 23.081750 36.659250 107.262250
11527 1 25.797250 33.943750 107.262250
11528 1 25.797250 36.659250 104.546750
11529 1 21.724000 32.586000 108.620000
11530 1 21.724000 35.301500 111.335500
11531 1 24.439500 32.586000 111.335500
11532 1 24.439500 35.301500 108.620000
11533 1 23.081750 33.943750 109.977750
11534 1 23.081750 36.659250 112.693250
11535 1 25.797250 33.943750 112.693250
11536 1 25.797250 36.659250 109.977750
11537 1 21.724000 32.586000 114.051000
11538 1 21.724000 35.301500 116.766500
11539 1 24.439500 32.586000 116.766500
11540 1 24.439500 35.301500 114.051000
11541 1 23.081750 33.943750 115.408750
11542 1 23.081750 36.659250 118.124250
11543 1 25.797250 33.943750 118.124250
11544 1 25.797250 36.659250 115.408750
11545 1 21.724000 32.586000 119.482000
11546 1 21.724000 35.301500 122.197500
11547 1 24.439500 32.586000 122.197500
11548 1 24.439500 35.301500 119.482000
11549 1 23.081750 33.943750 120.839750
11550 1 23.081750 36.659250 123.555250
11551 1 25.797250 33.943750 123.555250
11552 1 25.797250 36.659250 120.839750
11553 1 21.724000 32.586000 124.913000
11554 1 21.724000 35.301500 127.628500
11555 1 24.439500 32.586000 127.628500
11556 1 24.439500 35.301500 124.913000
11557 1 23.081750 33.943750 126.270750
11558 1 23.081750 36.659250 128.986250
11559 1 25.797250 33.943750 128.986250
11560 1 25.797250 36.659250 126.270750
11561 1 21.724000 32.586000 130.344000
11562 1 21.724000 35.301500 133.059500
11563 1 24.439500 32.586000 133.059500
11564 1 24.439500 35.301500 130.344000
11565 1 23.081750 33.943750 131.701750
11566 1 23.081750 36.659250 134.417250
11567 1 25.797250 33.943750 134.417250
11568 1 25.797250 36.659250 131.701750
11569 1 21.724000 32.586000 135.775000
11570 1 21.724000 35.301500 138.490500
11571 1 24.439500 32.586000 138.490500
11572 1 24.439500 35.301500 135.775000
11573 1 23.081750 33.943750 137.132750
11574 1 23.081750 36.659250 139.848250
11575 1 25.797250 33.943750 139.848250
11576 1 25.797250 36.659250 137.132750
11577 1 21.724000 32.586000 141.206000
11578 1 21.724000 35.301500 143.921500
11579 1 24.439500 32.586000 143.921500
11580 1 24.439500 35.301500 141.206000
11581 1 23.081750 33.943750 142.563750
11582 1 23.081750 36.659250 145.279250
11583 1 25.797250 33.943750 145.279250
11584 1 25.797250 36.659250 142.563750
11585 1 21.724000 32.586000 146.637000
11586 1 21.724000 35.301500 149.352500
11587 1 24.439500 32.586000 149.352500
11588 1 24.439500 35.301500 146.637000
11589 1 23.081750 33.943750 147.994750
11590 1 23.081750 36.659250 150.710250
11591 1 25.797250 33.943750 150.710250
11592 1 25.797250 36.659250 147.994750
11593 1 21.724000 32.586000 152.068000
11594 1 21.724000 35.301500 154.783500
11595 1 24.439500 32.586000 154.783500
11596 1 24.439500 35.301500 152.068000
11597 1 23.081750 33.943750 153.425750
11598 1 23.081750 36.659250 156.141250
11599 1 25.797250 33.943750 156.141250
11600 1 25.797250 36.659250 153.425750
11601 1 21.724000 32.586000 157.499000
11602 1 21.724000 35.301500 160.214500
11603 1 24.439500 32.586000 160.214500
11604 1 24.439500 35.301500 157.499000
11605 1 23.081750 33.943750 158.856750
11606 1 23.081750 36.659250 161.572250
11607 1 25.797250 33.943750 161.572250
11608 1 25.797250 36.659250 158.856750
11609 1 21.724000 32.586000 162.930000
11610 1 21.724000 35.301500 165.645500
11611 1 24.439500 32.586000 165.645500
11612 1 24.439500 35.301500 162.930000
11613 1 23.081750 33.943750 164.287750
11614 1 23.081750 36.659250 167.003250
11615 1 25.797250 33.943750 167.003250
11616 1 25.797250 36.659250 164.287750
11617 1 21.724000 32.586000 168.361000
11618 1 21.724000 35.301500 171.076500
11619 1 24.439500 32.586000 171.076500
11620 1 24.439500 35.301500 168.361000
11621 1 23.081750 33.943750 169.718750
11622 1 23.081750 36.659250 172.434250
11623 1 25.797250 33.943750 172.434250
11624 1 25.797250 36.659250 169.718750
11625 1 21.724000 32.586000 173.792000
11626 1 21.724000 35.301500 176.507500
11627 1 24.439500 32.586000 176.507500
11628 1 24.439500 35.301500 173.792000
11629 1 23.081750 33.943750 175.149750
11630 1 23.081750 36.659250 177.865250
11631 1 25.797250 33.943750 177.865250
11632 1 25.797250 36.659250 175.149750
11633 1 21.724000 32.586000 179.223000
11634 1 21.724000 35.301500 181.938500
11635 1 24.439500 32.586000 181.938500
11636 1 24.439500 35.301500 179.223000
11637 1 23.081750 33.943750 180.580750
11638 1 23.081750 36.659250 183.296250
11639 1 25.797250 33.943750 183.296250
11640 1 25.797250 36.659250 180.580750
11641 1 21.724000 32.586000 184.654000
11642 1 21.724000 35.301500 187.369500
11643 1 24.439500 32.586000 187.369500
11644 1 24.439500 35.301500 184.654000
11645 1 23.081750 33.943750 186.011750
11646 1 23.081750 36.659250 188.727250
11647 1 25.797250 33.943750 188.727250
11648 1 25.797250 36.659250 186.011750
11649 1 21.724000 32.586000 190.085000
11650 1 21.724000 35.301500 192.800500
11651 1 24.439500 32.586000 192.800500
11652 1 24.439500 35.301500 190.085000
11653 1 23.081750 33.943750 191.442750
11654 1 23.081750 36.659250 194.158250
11655 1 25.797250 33.943750 194.158250
11656 1 25.797250 36.659250 191.442750
11657 1 21.724000 32.586000 195.516000
11658 1 21.724000 35.301500 198.231500
11659 1 24.439500 32.586000 198.231500
11660 1 24.439500 35.301500 195.516000
11661 1 23.081750 33.943750 196.873750
11662 1 23.081750 36.659250 199.589250
11663 1 25.797250 33.943750 199.589250
11664 1 25.797250 36.659250 196.873750
11665 1 21.724000 32.586000 200.947000
11666 1 21.724000 35.301500 203.662500
11667 1 24.439500 32.586000 203.662500
11668 1 24.439500 35.301500 200.947000
11669 1 23.081750 33.943750 202.304750
11670 1 23.081750 36.659250 205.020250
11671 1 25.797250 33.943750 205.020250
11672 1 25.797250 36.659250 202.304750
11673 1 21.724000 32.586000 206.378000
11674 1 21.724000 35.301500 209.093500
11675 1 24.439500 32.586000 209.093500
11676 1 24.439500 35.301500 206.378000
11677 1 23.081750 33.943750 207.735750
11678 1 23.081750 36.659250 210.451250
11679 1 25.797250 33.943750 210.451250
11680 1 25.797250 36.659250 207.735750
11681 1 21.724000 32.586000 211.809000
11682 1 21.724000 35.301500 214.524500
11683 1 24.439500 32.586000 214.524500
11684 1 24.439500 35.301500 211.809000
11685 1 23.081750 33.943750 213.166750
11686 1 23.081750 36.659250 215.882250
11687 1 25.797250 33.943750 215.882250
11688 1 25.797250 36.659250 213.166750
11689 1 21.724000 32.586000 217.240000
11690 1 21.724000 35.301500 219.955500
11691 1 24.439500 32.586000 219.955500
11692 1 24.439500 35.301500 217.240000
11693 1 23.081750 33.943750 218.597750
11694 1 23.081750 36.659250 221.313250
11695 1 25.797250 33.943750 221.313250
11696 1 25.797250 36.659250 218.597750
11697 1 21.724000 32.586000 222.671000
11698 1 21.724000 35.301500 225.386500
11699 1 24.439500 32.586000 225.386500
11700 1 24.439500 35.301500 222.671000
11701 1 23.081750 33.943750 224.028750
11702 1 23.081750 36.659250 226.744250
11703 1 25.797250 33.943750 226.744250
11704 1 25.797250 36.659250 224.028750
11705 1 21.724000 32.586000 228.102000
11706 1 21.724000 35.301500 230.817500
11707 1 24.439500 32.586000 230.817500
11708 1 24.439500 35.301500 228.102000
11709 1 23.081750 33.943750 229.459750
11710 1 23.081750 36.659250 232.175250
11711 1 25.797250 33.943750 232.175250
11712 1 25.797250 36.659250 229.459750
11713 1 21.724000 32.586000 233.533000
11714 1 21.724000 35.301500 236.248500
11715 1 24.439500 32.586000 236.248500
11716 1 24.439500 35.301500 233.533000
11717 1 23.081750 33.943750 234.890750
11718 1 23.081750 36.659250 237.606250
11719 1 25.797250 33.943750 237.606250
11720 1 25.797250 36.659250 234.890750
11721 1 21.724000 32.586000 238.964000
11722 1 21.724000 35.301500 241.679500
11723 1 24.439500 32.586000 241.679500
11724 1 24.439500 35.301500 238.964000
11725 1 23.081750 33.943750 240.321750
11726 1 23.081750 36.659250 243.037250
11727 1 25.797250 33.943750 243.037250
11728 1 25.797250 36.659250 240.321750
11729 1 21.724000 32.586000 244.395000
11730 1 21.724000 35.301500 247.110500
11731 1 24.439500 32.586000 247.110500
11732 1 24.439500 35.301500 244.395000
11733 1 23.081750 33.943750 245.752750
11734 1 23.081750 36.659250 248.468250
11735 1 25.797250 33.943750 248.468250
11736 1 25.797250 36.659250 245.752750
11737 1 21.724000 32.586000 249.826000
11738 1 21.724000 35.301500 252.541500
11739 1 24.439500 32.586000 252.541500
11740 1 24.439500 35.301500 249.826000
11741 1 23.081750 33.943750 251.183750
11742 1 23.081750 36.659250 253.899250
11743 1 25.797250 33.943750 253.899250
11744 1 25.797250 36.659250 251.183750
11745 1 21.724000 32.586000 255.257000
11746 1 21.724000 35.301500 257.972500
11747 1 24.439500 32.586000 257.972500
11748 1 24.439500 35.301500 255.257000
11749 1 23.081750 33.943750 256.614750
11750 1 23.081750 36.659250 259.330250
11751 1 25.797250 33.943750 259.330250
11752 1 25.797250 36.659250 256.614750
11753 1 21.724000 38.017000 0.000000
11754 1 21.724000 40.732500 2.715500
11755 1 24.439500 38.017000 2.715500
11756 1 24.439500 40.732500 0.000000
11757 1 23.081750 39.374750 1.357750
11758 1 23.081750 42.090250 4.073250
11759 1 25.797250 39.374750 4.073250
11760 1 25.797250 42.090250 1.357750
11761 1 21.724000 38.017000 5.431000
11762 1 21.724000 40.732500 8.146500
11763 1 24.439500 38.017000 8.146500
11764 1 24.439500 40.732500 5.431000
11765 1 23.081750 39.374750 6.788750
11766 1 23.081750 42.090250 9.504250
11767 1 25.797250 39.374750 9.504250
11768 1 25.797250 42.090250 6.788750
11769 1 21.724000 38.017000 10.862000
11770 1 21.724000 40.732500 13.577500
11771 1 24.439500 38.017000 13.577500
11772 1 24.439500 40.732500 10.862000
11773 1 23.081750 39.374750 12.219750
11774 1 23.081750 42.090250 14.935250
11775 1 25.797250 39.374750 14.935250
11776 1 25.797250 42.090250 12.219750
11777 1 21.724000 38.017000 16.293000
11778 1 21.724000 40.732500 19.008500
11779 1 24.439500 38.017000 19.008500
11780 1 24.439500 40.732500 16.293000
11781 1 23.081750 39.374750 17.650750
11782 1 23.081750 42.090250 20.366250
11783 1 25.797250 39.374750 20.366250
11784 1 25.797250 42.090250 17.650750
11785 1 21.724000 38.017000 21.724000
11786 1 21.724000 40.732500 24.439500
11787 1 24.439500 38.017000 24.439500
11788 1 24.439500 40.732500 21.724000
11789 1 23.081750 39.374750 23.081750
11790 1 23.081750 42.090250 25.797250
11791 1 25.797250 39.374750 25.797250
11792 1 25.797250 42.090250 23.081750
11793 1 21.724000 38.017000 27.155000
11794 1 21.724000 40.732500 29.870500
11795 1 24.439500 38.017000 29.870500
11796 1 24.439500 40.732500 27.155000
11797 1 23.081750 39.374750 28.512750
11798 1 23.081750 42.090250 31.228250
11799 1 25.797250 39.374750 31.228250
11800 1 25.797250 42.090250 28.512750
11801 1 21.724000 38.017000 32.586000
11802 1 21.724000 40.732500 35.301500
11803 1 24.439500 38.017000 35.301500
11804 1 24.439500 40.732500 32.586000
11805 1 23.081750 39.374750 33.943750
11806 1 23.081750 42.090250 36.659250
11807 1 25.797250 39.374750 36.659250
11808 1 25.797250 42.090250 33.943750
11809 1 21.724000 38.017000 38.017000
11810 1 21.724000 40.732500 40.732500
11811 1 24.439500 38.017000 40.732500
11812 1 24.439500 40.732500 38.017000
11813 1 23.081750 39.374750 39.374750
11814 1 23.081750 42.090250 42.090250
11815 1 25.797250 39.374750 42.090250
11816 1 25.797250 42.090250 39.374750
11817 1 21.724000 38.017000 43.448000
11818 1 21.724000 40.732500 46.163500
11819 1 24.439500 38.017000 46.163500
11820 1 24.439500 40.732500 43.448000
11821 1 23.081750 39.374750 44.805750
11822 1 23.081750 42.090250 47.521250
11823 1 25.797250 39.374750 47.521250
11824 1 25.797250 42.090250 44.805750
11825 1 21.724000 38.017000 48.879000
11826 1 21.724000 40.732500 51.594500
11827 1 24.439500 38.017000 51.594500
11828 1 24.439500 40.732500 48.879000
11829 1 23.081750 39.374750 50.236750
11830 1 23.081750 42.090250 52.952250
11831 1 25.797250 39.374750 52.952250
11832 1 25.797250 42.090250 50.236750
11833 1 21.724000 38.017000 54.310000
11834 1 21.724000 40.732500 57.025500
11835 1 24.439500 38.017000 57.025500
11836 1 24.439500 40.732500 54.310000
11837 1 23.081750 39.374750 55.667750
11838 1 23.081750 42.090250 58.383250
11839 1 25.797250 39.374750 58.383250
11840 1 25.797250 42.090250 55.667750
11841 1 21.724000 38.017000 59.741000
11842 1 21.724000 40.732500 62.456500
11843 1 24.439500 38.017000 62.456500
11844 1 24.439500 40.732500 59.741000
11845 1 23.081750 39.374750 61.098750
11846 1 23.081750 42.090250 63.814250
11847 1 25.797250 39.374750 63.814250
11848 1 25.797250 42.090250 61.098750
11849 1 21.724000 38.017000 65.172000
11850 1 21.724000 40.732500 67.887500
11851 1 24.439500 38.017000 67.887500
11852 1 24.439500 40.732500 65.172000
11853 1 23.081750 39.374750 66.529750
11854 1 23.081750 42.090250 69.245250
11855 1 25.797250 39.374750 69.245250
11856 1 25.797250 42.090250 66.529750
11857 1 21.724000 38.017000 70.603000
11858 1 21.724000 40.732500 73.318500
11859 1 24.439500 38.017000 73.318500
11860 1 24.439500 40.732500 70.603000
11861 1 23.081750 39.374750 71.960750
11862 1 23.081750 42.090250 74.676250
11863 1 25.797250 39.374750 74.676250
11864 1 25.797250 42.090250 71.960750
11865 1 21.724000 38.017000 76.034000
11866 1 21.724000 40.732500 78.749500
11867 1 24.439500 38.017000 78.749500
11868 1 24.439500 40.732500 76.034000
11869 1 23.081750 39.374750 77.391750
11870 1 23.081750 42.090250 80.107250
11871 1 25.797250 39.374750 80.107250
11872 1 25.797250 42.090250 77.391750
11873 1 21.724000 38.017000 81.465000
11874 1 21.724000 40.732500 84.180500
11875 1 24.439500 38.017000 84.180500
11876 1 24.439500 40.732500 81.465000
11877 1 23.081750 39.374750 82.822750
11878 1 23.081750 42.090250 85.538250
11879 1 25.797250 39.374750 85.538250
11880 1 25.797250 42.090250 82.822750
11881 1 21.724000 38.017000 86.896000
11882 1 21.724000 40.732500 89.611500
11883 1 24.439500 38.017000 89.611500
11884 1 24.439500 40.732500 86.896000
11885 1 23.081750 39.374750 88.253750
11886 1 23.081750 42.090250 90.969250
11887 1 25.797250 39.374750 90.969250
11888 1 25.797250 42.090250 88.253750
11889 1 21.724000 38.017000 92.327000
11890 1 21.724000 40.732500 95.042500
11891 1 24.439500 38.017000 95.042500
11892 1 24.439500 40.732500 92.327000
11893 1 23.081750 39.374750 93.684750
11894 1 23.081750 42.090250 96.400250
11895 1 25.797250 39.374750 96.400250
11896 1 25.797250 42.090250 93.684750
11897 1 21.724000 38.017000 97.758000
11898 1 21.724000 40.732500 100.473500
11899 1 24.439500 38.017000 100.473500
11900 1 24.439500 40.732500 97.758000
11901 1 23.081750 39.374750 99.115750
11902 1 23.081750 42.090250 101.831250
11903 1 25.797250 39.374750 101.831250
11904 1 25.797250 42.090250 99.115750
11905 1 21.724000 38.017000 103.189000
11906 1 21.724000 40.732500 105.904500
11907 1 24.439500 38.017000 105.904500
11908 1 24.439500 40.732500 103.189000
11909 1 23.081750 39.374750 104.546750
11910 1 23.081750 42.090250 107.262250
11911 1 25.797250 39.374750 107.262250
11912 1 25.797250 42.090250 104.546750
11913 1 21.724000 38.017000 108.620000
11914 1 21.724000 40.732500 111.335500
11915 1 24.439500 38.017000 111.335500
11916 1 24.439500 40.732500 108.620000
11917 1 23.081750 39.374750 109.977750
11918 1 23.081750 42.090250 112.693250
11919 1 25.797250 39.374750 112.693250
11920 1 25.797250 42.090250 109.977750
11921 1 21.724000 38.017000 114.051000
11922 1 21.724000 40.732500 116.766500
11923 1 24.439500 38.017000 116.766500
11924 1 24.439500 40.732500 114.051000
11925 1 23.081750 39.374750 115.408750
11926 1 23.081750 42.090250 118.124250
11927 1 25.797250 39.374750 118.124250
11928 1 25.797250 42.090250 115.408750
11929 1 21.724000 38.017000 119.482000
11930 1 21.724000 40.732500 122.197500
11931 1 24.439500 38.017000 122.197500
11932 1 24.439500 40.732500 119.482000
11933 1 23.081750 39.374750 120.839750
11934 1 23.081750 42.090250 123.555250
11935 1 25.797250 39.374750 123.555250
11936 1 25.797250 42.090250 120.839750
11937 1 21.724000 38.017000 124.913000
11938 1 21.724000 40.732500 127.628500
11939 1 24.439500 38.017000 127.628500
11940 1 24.439500 40.732500 124.913000
11941 1 23.081750 39.374750 126.270750
11942 1 23.081750 42.090250 128.986250
11943 1 25.797250 39.374750 128.986250
11944 1 25.797250 42.090250 126.270750
11945 1 21.724000 38.017000 130.344000
11946 1 21.724000 40.732500 133.059500
11947 1 24.439500 38.017000 133.059500
11948 1 24.439500 40.732500 130.344000
11949 1 23.081750 39.374750 131.701750
11950 1 23.081750 42.090250 134.417250
11951 1 25.797250 39.374750 134.417250
11952 1 25.797250 42.090250 131.701750
11953 1 21.724000 38.017000 135.775000
11954 1 21.724000 40.732500 138.490500
11955 1 24.439500 38.017000 138.490500
11956 1 24.439500 40.732500 135.775000
11957 1 23.081750 39.374750 137.132750
11958 1 23.081750 42.090250 139.848250
11959 1 25.797250 39.374750 139.848250
11960 1 25.797250 42.090250 137.132750
11961 1 21.724000 38.017000 141.206000
11962 1 21.724000 40.732500 143.921500
11963 1 24.439500 38.017000 143.921500
11964 1 24.439500 40.732500 141.206000
11965 1 23.081750 39.374750 142.563750
11966 1 23.081750 42.090250 145.279250
11967 1 25.797250 39.374750 145.279250
11968 1 25.797250 42.090250 142.563750
11969 1 21.724000 38.017000 146.637000
11970 1 21.724000 40.732500 149.352500
11971 1 24.439500 38.017000 149.352500
11972 1 24.439500 40.732500 146.637000
11973 1 23.081750 39.374750 147.994750
11974 1 23.081750 42.090250 150.710250
11975 1 25.797250 39.374750 150.710250
11976 1 25.797250 42.090250 147.994750
11977 1 21.724000 38.017000 152.068000
11978 1 21.724000 40.732500 154.783500
11979 1 24.439500 38.017000 154.783500
11980 1 24.439500 40.732500 152.068000
11981 1 23.081750 39.374750 153.425750
11982 1 23.081750 42.090250 156.141250
11983 1 25.797250 39.374750 156.141250
11984 1 25.797250 42.090250 153.425750
11985 1 21.724000 38.017000 157.499000
11986 1 21.724000 40.732500 160.214500
11987 1 24.439500 38.017000 160.214500
11988 1 24.439500 40.732500 157.499000
11989 1 23.081750 39.374750 158.856750
11990 1 23.081750 42.090250 161.572250
11991 1 25.797250 39.374750 161.572250
11992 1 25.797250 42.090250 158.856750
11993 1 21.724000 38.017000 162.930000
11994 1 21.724000 40.732500 165.645500
11995 1 24.439500 38.017000 165.645500
11996 1 24.439500 40.732500 162.930000
11997 1 23.081750 39.374750 164.287750
11998 1 23.081750 42.090250 167.003250
11999 1 25.797250 39.374750 167.003250
12000 1 25.797250 42.090250 164.287750
12001 1 21.724000 38.017000 168.361000
12002 1 21.724000 40.732500 171.076500
12003 1 24.439500 38.017000 171.076500
12004 1 24.439500 40.732500 168.361000
12005 1 23.081750 39.374750 169.718750
12006 1 23.081750 42.090250 172.434250
12007 1 25.797250 39.374750 172.434250
12008 1 25.797250 42.090250 169.718750
12009 1 21.724000 38.017000 173.792000
12010 1 21.724000 40.732500 176.507500
12011 1 24.439500 38.017000 176.507500
12012 1 24.439500 40.732500 173.792000
12013 1 23.081750 39.374750 175.149750
12014 1 23.081750 42.090250 177.865250
12015 1 25.797250 39.374750 177.865250
12016 1 25.797250 42.090250 175.149750
12017 1 21.724000 38.017000 179.223000
12018 1 21.724000 40.732500 181.938500
12019 1 24.439500 38.017000 181.938500
12020 1 24.439500 40.732500 179.223000
12021 1 23.081750 39.374750 180.580750
12022 1 23.081750 42.090250 183.296250
12023 1 25.797250 39.374750 183.296250
12024 1 25.797250 42.090250 180.580750
12025 1 21.724000 38.017000 184.654000
12026 1 21.724000 40.732500 187.369500
12027 1 24.439500 38.017000 187.369500
12028 1 24.439500 40.732500 184.654000
12029 1 23.081750 39.374750 186.011750
12030 1 23.081750 42.090250 188.727250
12031 1 25.797250 39.374750 188.727250
12032 1 25.797250 42.090250 186.011750
12033 1 21.724000 38.017000 190.085000
12034 1 21.724000 40.732500 192.800500
12035 1 24.439500 38.017000 192.800500
12036 1 24.439500 40.732500 190.085000
12037 1 23.081750 39.374750 191.442750
12038 1 23.081750 42.090250 194.158250
12039 1 25.797250 39.374750 194.158250
12040 1 25.797250 42.090250 191.442750
12041 1 21.724000 38.017000 195.516000
12042 1 21.724000 40.732500 198.231500
12043 1 24.439500 38.017000 198.231500
12044 1 24.439500 40.732500 195.516000
12045 1 23.081750 39.374750 196.873750
12046 1 23.081750 42.090250 199.589250
12047 1 25.797250 39.374750 199.589250
12048 1 25.797250 42.090250 196.873750
12049 1 21.724000 38.017000 200.947000
12050 1 21.724000 40.732500 203.662500
12051 1 24.439500 38.017000 203.662500
12052 1 24.439500 40.732500 200.947000
12053 1 23.081750 39.374750 202.304750
12054 1 23.081750 42.090250 205.020250
12055 1 25.797250 39.374750 205.020250
12056 1 25.797250 42.090250 202.304750
12057 1 21.724000 38.017000 206.378000
12058 1 21.724000 40.732500 209.093500
12059 1 24.439500 38.017000 209.093500
12060 1 24.439500 40.732500 206.378000
12061 1 23.081750 39.374750 207.735750
12062 1 23.081750 42.090250 210.451250
12063 1 25.797250 39.374750 210.451250
12064 1 25.797250 42.090250 207.735750
12065 1 21.724000 38.017000 211.809000
12066 1 21.724000 40.732500 214.524500
12067 1 24.439500 38.017000 214.524500
12068 1 24.439500 40.732500 211.809000
12069 1 23.081750 39.374750 213.166750
12070 1 23.081750 42.090250 215.882250
12071 1 25.797250 39.374750 215.882250
12072 1 25.797250 42.090250 213.166750
12073 1 21.724000 38.017000 217.240000
12074 1 21.724000 40.732500 219.955500
12075 1 24.439500 38.017000 219.955500
12076 1 24.439500 40.732500 217.240000
12077 1 23.081750 39.374750 218.597750
12078 1 23.081750 42.090250 221.313250
12079 1 25.797250 39.374750 221.313250
12080 1 25.797250 42.090250 218.597750
12081 1 21.724000 38.017000 222.671000
12082 1 21.724000 40.732500 225.386500
12083 1 24.439500 38.017000 225.386500
12084 1 24.439500 40.732500 222.671000
12085 1 23.081750 39.374750 224.028750
12086 1 23.081750 42.090250 226.744250
12087 1 25.797250 39.374750 226.744250
12088 1 25.797250 42.090250 224.028750
12089 1 21.724000 38.017000 228.102000
12090 1 21.724000 40.732500 230.817500
12091 1 24.439500 38.017000 230.817500
12092 1 24.439500 40.732500 228.102000
12093 1 23.081750 39.374750 229.459750
12094 1 23.081750 42.090250 232.175250
12095 1 25.797250 39.374750 232.175250
12096 1 25.797250 42.090250 229.459750
12097 1 21.724000 38.017000 233.533000
12098 1 21.724000 40.732500 236.248500
12099 1 24.439500 38.017000 236.248500
12100 1 24.439500 40.732500 233.533000
12101 1 23.081750 39.374750 234.890750
12102 1 23.081750 42.090250 237.606250
12103 1 25.797250 39.374750 237.606250
12104 1 25.797250 42.090250 234.890750
12105 1 21.724000 38.017000 238.964000
12106 1 21.724000 40.732500 241.679500
12107 1 24.439500 38.017000 241.679500
12108 1 24.439500 40.732500 238.964000
12109 1 23.081750 39.374750 240.321750
12110 1 23.081750 42.090250 243.037250
12111 1 25.797250 39.374750 243.037250
12112 1 25.797250 42.090250 240.321750
12113 1 21.724000 38.017000 244.395000
12114 1 21.724000 40.732500 247.110500
12115 1 24.439500 38.017000 247.110500
12116 1 24.439500 40.732500 244.395000
12117 1 23.081750 39.374750 245.752750
12118 1 23.081750 42.090250 248.468250
12119 1 25.797250 39.374750 248.468250
12120 1 25.797250 42.090250 245.752750
12121 1 21.724000 38.017000 249.826000
12122 1 21.724000 40.732500 252.541500
12123 1 24.439500 38.017000 252.541500
12124 1 24.439500 40.732500 249.826000
12125 1 23.081750 39.374750 251.183750
12126 1 23.081750 42.090250 253.899250
12127 1 25.797250 39.374750 253.899250
12128 1 25.797250 42.090250 251.183750
12129 1 21.724000 38.017000 255.257000
12130 1 21.724000 40.732500 257.972500
12131 1 24.439500 38.017000 257.972500
12132 1 24.439500 40.732500 255.257000
12133 1 23.081750 39.374750 256.614750
12134 1 23.081750 42.090250 259.330250
12135 1 25.797250 39.374750 259.330250
12136 1 25.797250 42.090250 256.614750
12137 1 29.870500 0.000000 2.715500
12138 1 29.870500 2.715500 0.000000
12139 1 28.512750 1.357750 1.357750
12140 1 28.512750 4.073250 4.073250
12141 1 31.228250 1.357750 4.073250
12142 1 31.228250 4.073250 1.357750
12143 1 29.870500 0.000000 8.146500
12144 1 29.870500 2.715500 5.431000
12145 1 28.512750 1.357750 6.788750
12146 1 28.512750 4.073250 9.504250
12147 1 31.228250 1.357750 9.504250
12148 1 31.228250 4.073250 6.788750
12149 1 29.870500 0.000000 13.577500
12150 1 29.870500 2.715500 10.862000
12151 1 28.512750 1.357750 12.219750
12152 1 28.512750 4.073250 14.935250
12153 1 31.228250 1.357750 14.935250
12154 1 31.228250 4.073250 12.219750
12155 1 29.870500 0.000000 19.008500
12156 1 29.870500 2.715500 16.293000
12157 1 28.512750 1.357750 17.650750
12158 1 28.512750 4.073250 20.366250
12159 1 31.228250 1.357750 20.366250
12160 1 31.228250 4.073250 17.650750
12161 1 27.155000 2.715500 24.439500
12162 1 29.870500 0.000000 24.439500
12163 1 29.870500 2.715500 21.724000
12164 1 28.512750 1.357750 23.081750
12165 1 28.512750 4.073250 25.797250
12166 1 31.228250 1.357750 25.797250
12167 1 31.228250 4.073250 23.081750
12168 1 27.155000 0.000000 27.155000
12169 1 27.155000 2.715500 29.870500
12170 1 29.870500 0.000000 29.870500
12171 1 29.870500 2.715500 27.155000
12172 1 28.512750 1.357750 28.512750
12173 1 28.512750 4.073250 31.228250
12174 1 31.228250 1.357750 31.228250
12175 1 31.228250 4.073250 28.512750
12176 1 27.155000 0.000000 32.586000
12177 1 27.155000 2.715500 35.301500
12178 1 29.870500 0.000000 35.301500
12179 1 29.870500 2.715500 32.586000
12180 1 28.512750 1.357750 33.943750
12181 1 28.512750 4.073250 36.659250
12182 1 31.228250 1.357750 36.659250
12183 1 31.228250 4.073250 33.943750
12184 1 27.155000 0.000000 38.017000
12185 1 27.155000 2.715500 40.732500
12186 1 29.870500 0.000000 40.732500
12187 1 29.870500 2.715500 38.017000
12188 1 28.512750 1.357750 39.374750
12189 1 28.512750 4.073250 42.090250
12190 1 31.228250 1.357750 42.090250
12191 1 31.228250 4.073250 39.374750
12192 1 29.870500 0.000000 46.163500
12193 1 29.870500 2.715500 43.448000
12194 1 28.512750 1.357750 44.805750
12195 1 28.512750 4.073250 47.521250
12196 1 31.228250 1.357750 47.521250
12197 1 31.228250 4.073250 44.805750
12198 1 29.870500 0.000000 51.594500
12199 1 29.870500 2.715500 48.879000
12200 1 28.512750 1.357750 50.236750
12201 1 28.512750 4.073250 52.952250
12202 1 31.228250 1.357750 52.952250
12203 1 31.228250 4.073250 50.236750
12204 1 29.870500 0.000000 57.025500
12205 1 29.870500 2.715500 54.310000
12206 1 28.512750 1.357750 55.667750
12207 1 28.512750 4.073250 58.383250
12208 1 31.228250 1.357750 58.383250
12209 1 31.228250 4.073250 55.667750
12210 1 29.870500 0.000000 62.456500
12211 1 29.870500 2.715500 59.741000
12212 1 28.512750 1.357750 61.098750
12213 1 28.512750 4.073250 63.814250
12214 1 31.228250 1.357750 63.814250
12215 1 31.228250 4.073250 61.098750
12216 1 27.155000 2.715500 67.887500
12217 1 29.870500 0.000000 67.887500
12218 1 29.870500 2.715500 65.172000
12219 1 28.512750 1.357750 66.529750
12220 1 28.512750 4.073250 69.245250
12221 1 31.228250 1.357750 69.245250
12222 1 31.228250 4.073250 66.529750
12223 1 27.155000 0.000000 70.603000
12224 1 27.155000 2.715500 73.318500
12225 1 29.870500 0.000000 73.318500
12226 1 29.870500 2.715500 70.603000
12227 1 28.512750 1.357750 71.960750
12228 1 28.512750 4.073250 74.676250
12229 1 31.228250 1.357750 74.676250
12230 1 31.228250 4.073250 71.960750
12231 1 27.155000 0.000000 76.034000
12232 1 27.155000 2.715500 78.749500
12233 1 29.870500 0.000000 78.749500
12234 1 29.870500 2.715500 76.034000
12235 1 28.512750 1.357750 77.391750
12236 1 28.512750 4.073250 80.107250
12237 1 31.228250 1.357750 80.107250
12238 1 31.228250 4.073250 77.391750
12239 1 27.155000 0.000000 81.465000
12240 1 27.155000 2.715500 84.180500
12241 1 29.870500 0.000000 84.180500
12242 1 29.870500 2.715500 81.465000
12243 1 28.512750 1.357750 82.822750
12244 1 28.512750 4.073250 85.538250
12245 1 31.228250 1.357750 85.538250
12246 1 31.228250 4.073250 82.822750
12247 1 29.870500 0.000000 89.611500
12248 1 29.870500 2.715500 86.896000
12249 1 28.512750 1.357750 88.253750
12250 1 28.512750 4.073250 90.969250
12251 1 31.228250 1.357750 90.969250
12252 1 31.228250 4.073250 88.253750
12253 1 29.870500 0.000000 95.042500
12254 1 29.870500 2.715500 92.327000
12255 1 28.512750 1.357750 93.684750
12256 1 28.512750 4.073250 96.400250
12257 1 31.228250 1.357750 96.400250
12258 1 31.228250 4.073250 93.684750
12259 1 29.870500 0.000000 100.473500
12260 1 29.870500 2.715500 97.758000
12261 1 28.512750 1.357750 99.115750
12262 1 28.512750 4.073250 101.831250
12263 1 31.228250 1.357750 101.831250
12264 1 31.228250 4.073250 99.115750
12265 1 29.870500 0.000000 105.904500
12266 1 29.870500 2.715500 103.189000
12267 1 28.512750 1.357750 104.546750
12268 1 28.512750 4.073250 107.262250
12269 1 31.228250 1.357750 107.262250
12270 1 31.228250 4.073250 104.546750
12271 1 27.155000 2.715500 111.335500
12272 1 29.870500 0.000000 111.335500
12273 1 29.870500 2.715500 108.620000
12274 1 28.512750 1.357750 109.977750
12275 1 28.512750 4.073250 112.693250
12276 1 31.228250 1.357750 112.693250
12277 1 31.228250 4.073250 109.977750
12278 1 27.155000 0.000000 114.051000
12279 1 27.155000 2.715500 116.766500
12280 1 29.870500 0.000000 116.766500
12281 1 29.870500 2.715500 114.051000
12282 1 28.512750 1.357750 115.408750
12283 1 28.512750 4.073250 118.124250
12284 1 31.228250 1.357750 118.124250
12285 1 31.228250 4.073250 115.408750
12286 1 27.155000 0.000000 119.482000
12287 1 27.155000 2.715500 122.197500
12288 1 29.870500 0.000000 122.197500
12289 1 29.870500 2.715500 119.482000
12290 1 28.512750 1.357750 120.839750
12291 1 28.512750 4.073250 123.555250
12292 1 31.228250 1.357750 123.555250
12293 1 31.228250 4.073250 120.839750
12294 1 27.155000 0.000000 124.913000
12295 1 27.155000 2.715500 127.628500
12296 1 29.870500 0.000000 127.628500
12297 1 29.870500 2.715500 124.913000
12298 1 28.512750 1.357750 126.270750
12299 1 28.512750 4.073250 128.986250
12300 1 31.228250 1.357750 128.986250
12301 1 31.228250 4.073250 126.270750
12302 1 29.870500 0.000000 133.059500
12303 1 29.870500 2.715500 130.344000
12304 1 28.512750 1.357750 131.701750
12305 1 28.512750 4.073250 134.417250
12306 1 31.228250 1.357750 134.417250
12307 1 31.228250 4.073250 131.701750
12308 1 29.870500 0.000000 138.490500
12309 1 29.870500 2.715500 135.775000
12310 1 28.512750 1.357750 137.132750
12311 1 28.512750 4.073250 139.848250
12312 1 31.228250 1.357750 139.848250
12313 1 31.228250 4.073250 137.132750
12314 1 29.870500 0.000000 143.921500
12315 1 29.870500 2.715500 141.206000
12316 1 28.512750 1.357750 142.563750
12317 1 28.512750 4.073250 145.279250
12318 1 31.228250 1.357750 145.279250
12319 1 31.228250 4.073250 142.563750
12320 1 29.870500 0.000000 149.352500
12321 1 29.870500 2.715500 146.637000
12322 1 28.512750 1.357750 147.994750
12323 1 28.512750 4.073250 150.710250
12324 1 31.228250 1.357750 150.710250
12325 1 31.228250 4.073250 147.994750
12326 1 27.155000 2.715500 154.783500
12327 1 29.870500 0.000000 154.783500
12328 1 29.870500 2.715500 152.068000
12329 1 28.512750 1.357750 153.425750
12330 1 28.512750 4.073250 156.141250
12331 1 31.228250 1.357750 156.141250
12332 1 31.228250 4.073250 153.425750
12333 1 27.155000 0.000000 157.499000
12334 1 27.155000 2.715500 160.214500
12335 1 29.870500 0.000000 160.214500
12336 1 29.870500 2.715500 157.499000
12337 1 28.512750 1.357750 158.856750
12338 1 28.512750 4.073250 161.572250
12339 1 31.228250 1.357750 161.572250
12340 1 31.228250 4.073250 158.856750
12341 1 27.155000 0.000000 162.930000
12342 1 27.155000 2.715500 165.645500
12343 1 29.870500 0.000000 165.645500
12344 1 29.870500 2.715500 162.930000
12345 1 28.512750 1.357750 164.287750
12346 1 28.512750 4.073250 167.003250
12347 1 31.228250 1.357750 167.003250
12348 1 31.228250 4.073250 164.287750
12349 1 27.155000 0.000000 168.361000
12350 1 27.155000 2.715500 171.076500
12351 1 29.870500 0.000000 171.076500
12352 1 29.870500 2.715500 168.361000
12353 1 28.512750 1.357750 169.718750
12354 1 28.512750 4.073250 172.434250
12355 1 31.228250 1.357750 172.434250
12356 1 31.228250 4.073250 169.718750
12357 1 29.870500 0.000000 176.507500
12358 1 29.870500 2.715500 173.792000
12359 1 28.512750 1.357750 175.149750
12360 1 28.512750 4.073250 177.865250
12361 1 31.228250 1.357750 177.865250
12362 1 31.228250 4.073250 175.149750
12363 1 29.870500 0.000000 181.938500
12364 1 29.870500 2.715500 179.223000
12365 1 28.512750 1.357750 180.580750
12366 1 28.512750 4.073250 183.296250
12367 1 31.228250 1.357750 183.296250
12368 1 31.228250 4.073250 180.580750
12369 1 29.870500 0.000000 187.369500
12370 1 29.870500 2.715500 184.654000
12371 1 28.512750 1.357750 186.011750
12372 1 28.512750 4.073250 188.727250
12373 1 31.228250 1.357750 188.727250
12374 1 31.228250 4.073250 186.011750
12375 1 29.870500 0.000000 192.800500
12376 1 29.870500 2.715500 190.085000
12377 1 28.512750 1.357750 191.442750
12378 1 28.512750 4.073250 194.158250
12379 1 31.228250 1.357750 194.158250
12380 1 31.228250 4.073250 191.442750
12381 1 27.155000 2.715500 198.231500
12382 1 29.870500 0.000000 198.231500
12383 1 29.870500 2.715500 195.516000
12384 1 28.512750 1.357750 196.873750
12385 1 28.512750 4.073250 199.589250
12386 1 31.228250 1.357750 199.589250
12387 1 31.228250 4.073250 196.873750
12388 1 27.155000 0.000000 200.947000
12389 1 27.155000 2.715500 203.662500
12390 1 29.870500 0.000000 203.662500
12391 1 29.870500 2.715500 200.947000
12392 1 28.512750 1.357750 202.304750
12393 1 28.512750 4.073250 205.020250
12394 1 31.228250 1.357750 205.020250
12395 1 31.228250 4.073250 202.304750
12396 1 27.155000 0.000000 206.378000
12397 1 27.155000 2.715500 209.093500
12398 1 29.870500 0.000000 209.093500
12399 1 29.870500 2.715500 206.378000
12400 1 28.512750 1.357750 207.735750
12401 1 28.512750 4.073250 210.451250
12402 1 31.228250 1.357750 210.451250
12403 1 31.228250 4.073250 207.735750
12404 1 27.155000 0.000000 211.809000
12405 1 27.155000 2.715500 214.524500
12406 1 29.870500 0.000000 214.524500
12407 1 29.870500 2.715500 211.809000
12408 1 28.512750 1.357750 213.166750
12409 1 28.512750 4.073250 215.882250
12410 1 31.228250 1.357750 215.882250
12411 1 31.228250 4.073250 213.166750
12412 1 29.870500 0.000000 219.955500
12413 1 29.870500 2.715500 217.240000
12414 1 28.512750 1.357750 218.597750
12415 1 28.512750 4.073250 221.313250
12416 1 31.228250 1.357750 221.313250
12417 1 31.228250 4.073250 218.597750
12418 1 29.870500 0.000000 225.386500
12419 1 29.870500 2.715500 222.671000
12420 1 28.512750 1.357750 224.028750
12421 1 28.512750 4.073250 226.744250
12422 1 31.228250 1.357750 226.744250
12423 1 31.228250 4.073250 224.028750
12424 1 29.870500 0.000000 230.817500
12425 1 29.870500 2.715500 228.102000
12426 1 28.512750 1.357750 229.459750
12427 1 28.512750 4.073250 232.175250
12428 1 31.228250 1.357750 232.175250
12429 1 31.228250 4.073250 229.459750
12430 1 29.870500 0.000000 236.248500
12431 1 29.870500 2.715500 233.533000
12432 1 28.512750 1.357750 234.890750
12433 1 28.512750 4.073250 237.606250
12434 1 31.228250 1.357750 237.606250
12435 1 31.228250 4.073250 234.890750
12436 1 27.155000 2.715500 241.679500
12437 1 29.870500 0.000000 241.679500
12438 1 29.870500 2.715500 238.964000
12439 1 28.512750 1.357750 240.321750
12440 1 28.512750 4.073250 243.037250
12441 1 31.228250 1.357750 243.037250
12442 1 31.228250 4.073250 240.321750
12443 1 27.155000 0.000000 244.395000
12444 1 27.155000 2.715500 247.110500
12445 1 29.870500 0.000000 247.110500
12446 1 29.870500 2.715500 244.395000
12447 1 28.512750 1.357750 245.752750
12448 1 28.512750 4.073250 248.468250
12449 1 31.228250 1.357750 248.468250
12450 1 31.228250 4.073250 245.752750
12451 1 27.155000 0.000000 249.826000
12452 1 27.155000 2.715500 252.541500
12453 1 29.870500 0.000000 252.541500
12454 1 29.870500 2.715500 249.826000
12455 1 28.512750 1.357750 251.183750
12456 1 28.512750 4.073250 253.899250
12457 1 31.228250 1.357750 253.899250
12458 1 31.228250 4.073250 251.183750
12459 1 27.155000 0.000000 255.257000
12460 1 27.155000 2.715500 257.972500
12461 1 29.870500 0.000000 257.972500
12462 1 29.870500 2.715500 255.257000
12463 1 28.512750 1.357750 256.614750
12464 1 28.512750 4.073250 259.330250
12465 1 31.228250 1.357750 259.330250
12466 1 31.228250 4.073250 256.614750
12467 1 29.870500 5.431000 2.715500
12468 1 29.870500 8.146500 0.000000
12469 1 28.512750 6.788750 1.357750
12470 1 28.512750 9.504250 4.073250
12471 1 31.228250 6.788750 4.073250
12472 1 31.228250 9.504250 1.357750
12473 1 29.870500 5.431000 8.146500
12474 1 29.870500 8.146500 5.431000
12475 1 28.512750 6.788750 6.788750
12476 1 28.512750 9.504250 9.504250
12477 1 31.228250 6.788750 9.504250
12478 1 31.228250 9.504250 6.788750
12479 1 29.870500 5.431000 13.577500
12480 1 29.870500 8.146500 10.862000
12481 1 28.512750 6.788750 12.219750
12482 1 28.512750 9.504250 14.935250
12483 1 31.228250 6.788750 14.935250
12484 1 31.228250 9.504250 12.219750
12485 1 29.870500 5.431000 19.008500
12486 1 29.870500 8.146500 16.293000
12487 1 28.512750 6.788750 17.650750
12488 1 28.512750 9.504250 20.366250
12489 1 31.228250 6.788750 20.366250
12490 1 31.228250 9.504250 17.650750
12491 1 27.155000 8.146500 24.439500
12492 1 29.870500 5.431000 24.439500
12493 1 29.870500 8.146500 21.724000
12494 1 28.512750 6.788750 23.081750
12495 1 28.512750 9.504250 25.797250
12496 1 31.228250 6.788750 25.797250
12497 1 31.228250 9.504250 23.081750
12498 1 27.155000 5.431000 27.155000
12499 1 27.155000 8.146500 29.870500
12500 1 29.870500 5.431000 29.870500
12501 1 29.870500 8.146500 27.155000
12502 1 28.512750 6.788750 28.512750
12503 1 28.512750 9.504250 31.228250
12504 1 31.228250 6.788750 31.228250
12505 1 31.228250 9.504250 28.512750
12506 1 27.155000 5.431000 32.586000
12507 1 27.155000 8.146500 35.301500
12508 1 29.870500 5.431000 35.301500
12509 1 29.870500 8.146500 32.586000
12510 1 28.512750 6.788750 33.943750
12511 1 28.512750 9.504250 36.659250
12512 1 31.228250 6.788750 36.659250
12513 1 31.228250 9.504250 33.943750
12514 1 27.155000 5.431000 38.017000
12515 1 27.155000 8.146500 40.732500
12516 1 29.870500 5.431000 40.732500
12517 1 29.870500 8.146500 38.017000
12518 1 28.512750 6.788750 39.374750
12519 1 28.512750 9.504250 42.090250
12520 1 31.228250 6.788750 42.090250
12521 1 31.228250 9.504250 39.374750
12522 1 29.870500 5.431000 46.163500
12523 1 29.870500 8.146500 43.448000
12524 1 28.512750 6.788750 44.805750
12525 1 28.512750 9.504250 47.521250
12526 1 31.228250 6.788750 47.521250
12527 1 31.228250 9.504250 44.805750
12528 1 29.870500 5.431000 51.594500
12529 1 29.870500 8.146500 48.879000
12530 1 28.512750 6.788750 50.236750
12531 1 28.512750 9.504250 52.952250
12532 1 31.228250 6.788750 52.952250
12533 1 31.228250 9.504250 50.236750
12534 1 29.870500 5.431000 57.025500
12535 1 29.870500 8.146500 54.310000
12536 1 28.512750 6.788750 55.667750
12537 1 28.512750 9.504250 58.383250
12538 1 31.228250 6.788750 58.383250
12539 1 31.228250 9.504250 55.667750
12540 1 29.870500 5.431000 62.456500
12541 1 29.870500 8.146500 59.741000
12542 1 28.512750 6.788750 61.098750
12543 1 28.512750 9.504250 63.814250
12544 1 31.228250 6.788750 63.814250
12545 1 31.228250 9.504250 61.098750
12546 1 27.155000 8.146500 67.887500
12547 1 29.870500 5.431000 67.887500
12548 1 29.870500 8.146500 65.172000
12549 1 28.512750 6.788750 66.529750
12550 1 28.512750 9.504250 69.245250
12551 1 31.228250 6.788750 69.245250
12552 1 31.228250 9.504250 66.529750
12553 1 27.155000 5.431000 70.603000
12554 1 27.155000 8.146500 73.318500
12555 1 29.870500 5.431000 73.318500
12556 1 29.870500 8.146500 70.603000
12557 1 28.512750 6.788750 71.960750
12558 1 28.512750 9.504250 74.676250
12559 1 31.228250 6.788750 74.676250
12560 1 31.228250 9.504250 71.960750
12561 1 27.155000 5.431000 76.034000
12562 1 27.155000 8.146500 78.749500
12563 1 29.870500 5.431000 78.749500
12564 1 29.870500 8.146500 76.034000
12565 1 28.512750 6.788750 77.391750
12566 1 28.512750 9.504250 80.107250
12567 1 31.228250 6.788750 80.107250
12568 1 31.228250 9.504250 77.391750
12569 1 27.155000 5.431000 81.465000
12570 1 27.155000 8.146500 84.180500
12571 1 29.870500 5.431000 84.180500
12572 1 29.870500 8.146500 81.465000
12573 1 28.512750 6.788750 82.822750
12574 1 28.512750 9.504250 85.538250
12575 1 31.228250 6.788750 85.538250
12576 1 31.228250 9.504250 82.822750
12577 1 29.870500 5.431000 89.611500
12578 1 29.870500 8.146500 86.896000
12579 1 28.512750 6.788750 88.253750
12580 1 28.512750 9.504250 90.969250
12581 1 31.228250 6.788750 90.969250
12582 1 31.228250 9.504250 88.253750
12583 1 29.870500 5.431000 95.042500
12584 1 29.870500 8.146500 92.327000
12585 1 28.512750 6.788750 93.684750
12586 1 28.512750 9.504250 96.400250
12587 1 31.228250 6.788750 96.400250
12588 1 31.228250 9.504250 93.684750
12589 1 29.870500 5.431000 100.473500
12590 1 29.870500 8.146500 97.758000
12591 1 28.512750 6.788750 99.115750
12592 1 28.512750 9.504250 101.831250
12593 1 31.228250 6.788750 101.831250
12594 1 31.228250 9.504250 99.115750
12595 1 29.870500 5.431000 105.904500
12596 1 29.870500 8.146500 103.189000
12597 1 28.512750 6.788750 104.546750
12598 1 28.512750 9.504250 107.262250
12599 1 31.228250 6.788750 107.262250
12600 1 31.228250 9.504250 104.546750
12601 1 27.155000 8.146500 111.335500
12602 1 29.870500 5.431000 111.335500
12603 1 29.870500 8.146500 108.620000
12604 1 28.512750 6.788750 109.977750
12605 1 28.512750 9.504250 112.693250
12606 1 31.228250 6.788750 112.693250
12607 1 31.228250 9.504250 109.977750
12608 1 27.155000 5.431000 114.051000
12609 1 27.155000 8.146500 116.766500
12610 1 29.870500 5.431000 116.766500
12611 1 29.870500 8.146500 114.051000
12612 1 28.512750 6.788750 115.408750
12613 1 28.512750 9.504250 118.124250
12614 1 31.228250 6.788750 118.124250
12615 1 31.228250 9.504250 115.408750
12616 1 27.155000 5.431000 119.482000
12617 1 27.155000 8.146500 122.197500
12618 1 29.870500 5.431000 122.197500
12619 1 29.870500 8.146500 119.482000
12620 1 28.512750 6.788750 120.839750
12621 1 28.512750 9.504250 123.555250
12622 1 31.228250 6.788750 123.555250
12623 1 31.228250 9.504250 120.839750
12624 1 27.155000 5.431000 124.913000
12625 1 27.155000 8.146500 127.628500
12626 1 29.870500 5.431000 127.628500
12627 1 29.870500 8.146500 124.913000
12628 1 28.512750 6.788750 126.270750
12629 1 28.512750 9.504250 128.986250
12630 1 31.228250 6.788750 128.986250
12631 1 31.228250 9.504250 126.270750
12632 1 29.870500 5.431000 133.059500
12633 1 29.870500 8.146500 130.344000
12634 1 28.512750 6.788750 131.701750
12635 1 28.512750 9.504250 134.417250
12636 1 31.228250 6.788750 134.417250
12637 1 31.228250 9.504250 131.701750
12638 1 29.870500 5.431000 138.490500
12639 1 29.870500 8.146500 135.775000
12640 1 28.512750 6.788750 137.132750
12641 1 28.512750 9.504250 139.848250
12642 1 31.228250 6.788750 139.848250
12643 1 31.228250 9.504250 137.132750
12644 1 29.870500 5.431000 143.921500
12645 1 29.870500 8.146500 141.206000
12646 1 28.512750 6.788750 142.563750
12647 1 28.512750 9.504250 145.279250
12648 1 31.228250 6.788750 145.279250
12649 1 31.228250 9.504250 142.563750
12650 1 29.870500 5.431000 149.352500
12651 1 29.870500 8.146500 146.637000
12652 1 28.512750 6.788750 147.994750
12653 1 28.512750 9.504250 150.710250
12654 1 31.228250 6.788750 150.710250
12655 1 31.228250 9.504250 147.994750
12656 1 27.155000 8.146500 154.783500
12657 1 29.870500 5.431000 154.783500
12658 1 29.870500 8.146500 152.068000
12659 1 28.512750 6.788750 153.425750
12660 1 28.512750 9.504250 156.141250
12661 1 31.228250 6.788750 156.141250
12662 1 31.228250 9.504250 153.425750
12663 1 27.155000 5.431000 157.499000
12664 1 27.155000 8.146500 160.214500
12665 1 29.870500 5.431000 160.214500
12666 1 29.870500 8.146500 157.499000
12667 1 28.512750 6.788750 158.856750
12668 1 28.512750 9.504250 161.572250
12669 1 31.228250 6.788750 161.572250
12670 1 31.228250 9.504250 158.856750
12671 1 27.155000 5.431000 162.930000
12672 1 27.155000 8.146500 165.645500
12673 1 29.870500 5.431000 165.645500
12674 1 29.870500 8.146500 162.930000
12675 1 28.512750 6.788750 164.287750
12676 1 28.512750 9.504250 167.003250
12677 1 31.228250 6.788750 167.003250
12678 1 31.228250 9.504250 164.287750
12679 1 27.155000 5.431000 168.361000
12680 1 27.155000 8.146500 171.076500
12681 1 29.870500 5.431000 171.076500
12682 1 29.870500 8.146500 168.361000
12683 1 28.512750 6.788750 169.718750
12684 1 28.512750 9.504250 172.434250
12685 1 31.228250 6.788750 172.434250
12686 1 31.228250 9.504250 169.718750
12687 1 29.870500 5.431000 176.507500
12688 1 29.870500 8.146500 173.792000
12689 1 28.512750 6.788750 175.149750
12690 1 28.512750 9.504250 177.865250
12691 1 31.228250 6.788750 177.865250
12692 1 31.228250 9.504250 175.149750
12693 1 29.870500 5.431000 181.938500
12694 1 29.870500 8.146500 179.223000
12695 1 28.512750 6.788750 180.580750
12696 1 28.512750 9.504250 183.296250
12697 1 31.228250 6.788750 183.296250
12698 1 31.228250 9.504250 180.580750
12699 1 29.870500 5.431000 187.369500
12700 1 29.870500 8.146500 184.654000
12701 1 28.512750 6.788750 186.011750
12702 1 28.512750 9.504250 188.727250
12703 1 31.228250 6.788750 188.727250
12704 1 31.228250 9.504250 186.011750
12705 1 29.870500 5.431000 192.800500
12706 1 29.870500 8.146500 190.085000
12707 1 28.512750 6.788750 191.442750
12708 1 28.512750 9.504250 194.158250
12709 1 31.228250 6.788750 194.158250
12710 1 31.228250 9.504250 191.442750
12711 1 27.155000 8.146500 198.231500
12712 1 29.870500 5.431000 198.231500
12713 1 29.870500 8.146500 195.516000
12714 1 28.512750 6.788750 196.873750
12715 1 28.512750 9.504250 199.589250
12716 1 31.228250 6.788750 199.589250
12717 1 31.228250 9.504250 196.873750
12718 1 27.155000 5.431000 200.947000
12719 1 27.155000 8.146500 203.662500
12720 1 29.870500 5.431000 203.662500
12721 1 29.870500 8.146500 200.947000
12722 1 28.512750 6.788750 202.304750
12723 1 28.512750 9.504250 205.020250
12724 1 31.228250 6.788750 205.020250
12725 1 31.228250 9.504250 202.304750
12726 1 27.155000 5.431000 206.378000
12727 1 27.155000 8.146500 209.093500
12728 1 29.870500 5.431000 209.093500
12729 1 29.870500 8.146500 206.378000
12730 1 28.512750 6.788750 207.735750
12731 1 28.512750 9.504250 210.451250
12732 1 31.228250 6.788750 210.451250
12733 1 31.228250 9.504250 207.735750
12734 1 27.155000 5.431000 211.809000
12735 1 27.155000 8.146500 214.524500
12736 1 29.870500 5.431000 214.524500
12737 1 29.870500 8.146500 211.809000
12738 1 28.512750 6.788750 213.166750
12739 1 28.512750 9.504250 215.882250
12740 1 31.228250 6.788750 215.882250
12741 1 31.228250 9.504250 213.166750
12742 1 29.870500 5.431000 219.955500
12743 1 29.870500 8.146500 217.240000
12744 1 28.512750 6.788750 218.597750
12745 1 28.512750 9.504250 221.313250
12746 1 31.228250 6.788750 221.313250
12747 1 31.228250 9.504250 218.597750
12748 1 29.870500 5.431000 225.386500
12749 1 29.870500 8.146500 222.671000
12750 1 28.512750 6.788750 224.028750
12751 1 28.512750 9.504250 226.744250
12752 1 31.228250 6.788750 226.744250
12753 1 31.228250 9.504250 224.028750
12754 1 29.870500 5.431000 230.817500
12755 1 29.870500 8.146500 228.102000
12756 1 28.512750 6.788750 229.459750
12757 1 28.512750 9.504250 232.175250
12758 1 31.228250 6.788750 232.175250
12759 1 31.228250 9.504250 229.459750
12760 1 29.870500 5.431000 236.248500
12761 1 29.870500 8.146500 233.533000
12762 1 28.512750 6.788750 234.890750
12763 1 28.512750 9.504250 237.606250
12764 1 31.228250 6.788750 237.606250
12765 1 31.228250 9.504250 234.890750
12766 1 27.155000 8.146500 241.679500
12767 1 29.870500 5.431000 241.679500
12768 1 29.870500 8.146500 238.964000
12769 1 28.512750 6.788750 240.321750
12770 1 28.512750 9.504250 243.037250
12771 1 31.228250 6.788750 243.037250
12772 1 31.228250 9.504250 240.321750
12773 1 27.155000 5.431000 244.395000
12774 1 27.155000 8.146500 247.110500
12775 1 29.870500 5.431000 247.110500
12776 1 29.870500 8.146500 244.395000
12777 1 28.512750 6.788750 245.752750
12778 1 28.512750 9.504250 248.468250
12779 1 31.228250 6.788750 248.468250
12780 1 31.228250 9.504250 245.752750
12781 1 27.155000 5.431000 249.826000
12782 1 27.155000 8.146500 252.541500
12783 1 29.870500 5.431000 252.541500
12784 1 29.870500 8.146500 249.826000
12785 1 28.512750 6.788750 251.183750
12786 1 28.512750 9.504250 253.899250
12787 1 31.228250 6.788750 253.899250
12788 1 31.228250 9.504250 251.183750
12789 1 27.155000 5.431000 255.257000
12790 1 27.155000 8.146500 257.972500
12791 1 29.870500 5.431000 257.972500
12792 1 29.870500 8.146500 255.257000
12793 1 28.512750 6.788750 256.614750
12794 1 28.512750 9.504250 259.330250
12795 1 31.228250 6.788750 259.330250
12796 1 31.228250 9.504250 256.614750
12797 1 27.155000 13.577500 2.715500
12798 1 29.870500 10.862000 2.715500
12799 1 29.870500 13.577500 0.000000
12800 1 28.512750 12.219750 1.357750
12801 1 28.512750 14.935250 4.073250
12802 1 31.228250 12.219750 4.073250
12803 1 31.228250 14.935250 1.357750
12804 1 27.155000 13.577500 8.146500
12805 1 29.870500 10.862000 8.146500
12806 1 29.870500 13.577500 5.431000
12807 1 28.512750 12.219750 6.788750
12808 1 28.512750 14.935250 9.504250
12809 1 31.228250 12.219750 9.504250
12810 1 31.228250 14.935250 6.788750
12811 1 27.155000 13.577500 13.577500
12812 1 29.870500 10.862000 13.577500
12813 1 29.870500 13.577500 10.862000
12814 1 28.512750 12.219750 12.219750
12815 1 28.512750 14.935250 14.935250
12816 1 31.228250 12.219750 14.935250
12817 1 31.228250 14.935250 12.219750
12818 1 27.155000 13.577500 19.008500
12819 1 29.870500 10.862000 19.008500
12820 1 29.870500 13.577500 16.293000
12821 1 28.512750 12.219750 17.650750
12822 1 28.512750 14.935250 20.366250
12823 1 31.228250 12.219750 20.366250
12824 1 31.228250 14.935250 17.650750
12825 1 27.155000 13.577500 24.439500
12826 1 29.870500 10.862000 24.439500
12827 1 29.870500 13.577500 21.724000
12828 1 28.512750 12.219750 23.081750
12829 1 28.512750 14.935250 25.797250
12830 1 31.228250 12.219750 25.797250
12831 1 31.228250 14.935250 23.081750
12832 1 27.155000 10.862000 27.155000
12833 1 27.155000 13.577500 29.870500
12834 1 29.870500 10.862000 29.870500
12835 1 29.870500 13.577500 27.155000
12836 1 28.512750 12.219750 28.512750
12837 1 28.512750 14.935250 31.228250
12838 1 31.228250 12.219750 31.228250
12839 1 31.228250 14.935250 28.512750
12840 1 27.155000 10.862000 32.586000
12841 1 27.155000 13.577500 35.301500
12842 1 29.870500 10.862000 35.301500
12843 1 29.870500 13.577500 32.586000
12844 1 28.512750 12.219750 33.943750
12845 1 28.512750 14.935250 36.659250
12846 1 31.228250 12.219750 36.659250
12847 1 31.228250 14.935250 33.943750
12848 1 27.155000 10.862000 38.017000
12849 1 27.155000 13.577500 40.732500
12850 1 29.870500 10.862000 40.732500
12851 1 29.870500 13.577500 38.017000
12852 1 28.512750 12.219750 39.374750
12853 1 28.512750 14.935250 42.090250
12854 1 31.228250 12.219750 42.090250
12855 1 31.228250 14.935250 39.374750
12856 1 27.155000 13.577500 46.163500
12857 1 29.870500 10.862000 46.163500
12858 1 29.870500 13.577500 43.448000
12859 1 28.512750 12.219750 44.805750
12860 1 28.512750 14.935250 47.521250
12861 1 31.228250 12.219750 47.521250
12862 1 31.228250 14.935250 44.805750
12863 1 27.155000 13.577500 51.594500
12864 1 29.870500 10.862000 51.594500
12865 1 29.870500 13.577500 48.879000
12866 1 28.512750 12.219750 50.236750
12867 1 28.512750 14.935250 52.952250
12868 1 31.228250 12.219750 52.952250
12869 1 31.228250 14.935250 50.236750
12870 1 27.155000 13.577500 57.025500
12871 1 29.870500 10.862000 57.025500
12872 1 29.870500 13.577500 54.310000
12873 1 28.512750 12.219750 55.667750
12874 1 28.512750 14.935250 58.383250
12875 1 31.228250 12.219750 58.383250
12876 1 31.228250 14.935250 55.667750
12877 1 27.155000 13.577500 62.456500
12878 1 29.870500 10.862000 62.456500
12879 1 29.870500 13.577500 59.741000
12880 1 28.512750 12.219750 61.098750
12881 1 28.512750 14.935250 63.814250
12882 1 31.228250 12.219750 63.814250
12883 1 31.228250 14.935250 61.098750
12884 1 27.155000 13.577500 67.887500
12885 1 29.870500 10.862000 67.887500
12886 1 29.870500 13.577500 65.172000
12887 1 28.512750 12.219750 66.529750
12888 1 28.512750 14.935250 69.245250
12889 1 31.228250 12.219750 69.245250
12890 1 31.228250 14.935250 66.529750
12891 1 27.155000 10.862000 70.603000
12892 1 27.155000 13.577500 73.318500
12893 1 29.870500 10.862000 73.318500
12894 1 29.870500 13.577500 70.603000
12895 1 28.512750 12.219750 71.960750
12896 1 28.512750 14.935250 74.676250
12897 1 31.228250 12.219750 74.676250
12898 1 31.228250 14.935250 71.960750
12899 1 27.155000 10.862000 76.034000
12900 1 27.155000 13.577500 78.749500
12901 1 29.870500 10.862000 78.749500
12902 1 29.870500 13.577500 76.034000
12903 1 28.512750 12.219750 77.391750
12904 1 28.512750 14.935250 80.107250
12905 1 31.228250 12.219750 80.107250
12906 1 31.228250 14.935250 77.391750
12907 1 27.155000 10.862000 81.465000
12908 1 27.155000 13.577500 84.180500
12909 1 29.870500 10.862000 84.180500
12910 1 29.870500 13.577500 81.465000
12911 1 28.512750 12.219750 82.822750
12912 1 28.512750 14.935250 85.538250
12913 1 31.228250 12.219750 85.538250
12914 1 31.228250 14.935250 82.822750
12915 1 27.155000 13.577500 89.611500
12916 1 29.870500 10.862000 89.611500
12917 1 29.870500 13.577500 86.896000
12918 1 28.512750 12.219750 88.253750
12919 1 28.512750 14.935250 90.969250
12920 1 31.228250 12.219750 90.969250
12921 1 31.228250 14.935250 88.253750
12922 1 27.155000 13.577500 95.042500
12923 1 29.870500 10.862000 95.042500
12924 1 29.870500 13.577500 92.327000
12925 1 28.512750 12.219750 93.684750
12926 1 28.512750 14.935250 96.400250
12927 1 31.228250 12.219750 96.400250
12928 1 31.228250 14.935250 93.684750
12929 1 27.155000 13.577500 100.473500
12930 1 29.870500 10.862000 100.473500
12931 1 29.870500 13.577500 97.758000
12932 1 28.512750 12.219750 99.115750
12933 1 28.512750 14.935250 101.831250
12934 1 31.228250 12.219750 101.831250
12935 1 31.228250 14.935250 99.115750
12936 1 27.155000 13.577500 105.904500
12937 1 29.870500 10.862000 105.904500
12938 1 29.870500 13.577500 103.189000
12939 1 28.512750 12.219750 104.546750
12940 1 28.512750 14.935250 107.262250
12941 1 31.228250 12.219750 107.262250
12942 1 31.228250 14.935250 104.546750
12943 1 27.155000 13.577500 111.335500
12944 1 29.870500 10.862000 111.335500
12945 1 29.870500 13.577500 108.620000
12946 1 28.512750 12.219750 109.977750
12947 1 28.512750 14.935250 112.693250
12948 1 31.228250 12.219750 112.693250
12949 1 31.228250 14.935250 109.977750
12950 1 27.155000 10.862000 114.051000
12951 1 27.155000 13.577500 116.766500
12952 1 29.870500 10.862000 116.766500
12953 1 29.870500 13.577500 114.051000
12954 1 28.512750 12.219750 115.408750
12955 1 28.512750 14.935250 118.124250
12956 1 31.228250 12.219750 118.124250
12957 1 31.228250 14.935250 115.408750
12958 1 27.155000 10.862000 119.482000
12959 1 27.155000 13.577500 122.197500
12960 1 29.870500 10.862000 122.197500
12961 1 29.870500 13.577500 119.482000
12962 1 28.512750 12.219750 120.839750
12963 1 28.512750 14.935250 123.555250
12964 1 31.228250 12.219750 123.555250
12965 1 31.228250 14.935250 120.839750
12966 1 27.155000 10.862000 124.913000
12967 1 27.155000 13.577500 127.628500
12968 1 29.870500 10.862000 127.628500
12969 1 29.870500 13.577500 124.913000
12970 1 28.512750 12.219750 126.270750
12971 1 28.512750 14.935250 128.986250
12972 1 31.228250 12.219750 128.986250
12973 1 31.228250 14.935250 126.270750
12974 1 27.155000 13.577500 133.059500
12975 1 29.870500 10.862000 133.059500
12976 1 29.870500 13.577500 130.344000
12977 1 28.512750 12.219750 131.701750
12978 1 28.512750 14.935250 134.417250
12979 1 31.228250 12.219750 134.417250
12980 1 31.228250 14.935250 131.701750
12981 1 27.155000 13.577500 138.490500
12982 1 29.870500 10.862000 138.490500
12983 1 29.870500 13.577500 135.775000
12984 1 28.512750 12.219750 137.132750
12985 1 28.512750 14.935250 139.848250
12986 1 31.228250 12.219750 139.848250
12987 1 31.228250 14.935250 137.132750
12988 1 27.155000 13.577500 143.921500
12989 1 29.870500 10.862000 143.921500
12990 1 29.870500 13.577500 141.206000
12991 1 28.512750 12.219750 142.563750
12992 1 28.512750 14.935250 145.279250
12993 1 31.228250 12.219750 145.279250
12994 1 31.228250 14.935250 142.563750
12995 1 27.155000 13.577500 149.352500
12996 1 29.870500 10.862000 149.352500
12997 1 29.870500 13.577500 146.637000
12998 1 28.512750 12.219750 147.994750
12999 1 28.512750 14.935250 150.710250
13000 1 31.228250 12.219750 150.710250
13001 1 31.228250 14.935250 147.994750
13002 1 27.155000 13.577500 154.783500
13003 1 29.870500 10.862000 154.783500
13004 1 29.870500 13.577500 152.068000
13005 1 28.512750 12.219750 153.425750
13006 1 28.512750 14.935250 156.141250
13007 1 31.228250 12.219750 156.141250
13008 1 31.228250 14.935250 153.425750
13009 1 27.155000 10.862000 157.499000
13010 1 27.155000 13.577500 160.214500
13011 1 29.870500 10.862000 160.214500
13012 1 29.870500 13.577500 157.499000
13013 1 28.512750 12.219750 158.856750
13014 1 28.512750 14.935250 161.572250
13015 1 31.228250 12.219750 161.572250
13016 1 31.228250 14.935250 158.856750
13017 1 27.155000 10.862000 162.930000
13018 1 27.155000 13.577500 165.645500
13019 1 29.870500 10.862000 165.645500
13020 1 29.870500 13.577500 162.930000
13021 1 28.512750 12.219750 164.287750
13022 1 28.512750 14.935250 167.003250
13023 1 31.228250 12.219750 167.003250
13024 1 31.228250 14.935250 164.287750
13025 1 27.155000 10.862000 168.361000
13026 1 27.155000 13.577500 171.076500
13027 1 29.870500 10.862000 171.076500
13028 1 29.870500 13.577500 168.361000
13029 1 28.512750 12.219750 169.718750
13030 1 28.512750 14.935250 172.434250
13031 1 31.228250 12.219750 172.434250
13032 1 31.228250 14.935250 169.718750
13033 1 27.155000 13.577500 176.507500
13034 1 29.870500 10.862000 176.507500
13035 1 29.870500 13.577500 173.792000
13036 1 28.512750 12.219750 175.149750
13037 1 28.512750 14.935250 177.865250
13038 1 31.228250 12.219750 177.865250
13039 1 31.228250 14.935250 175.149750
13040 1 27.155000 13.577500 181.938500
13041 1 29.870500 10.862000 181.938500
13042 1 29.870500 13.577500 179.223000
13043 1 28.512750 12.219750 180.580750
13044 1 28.512750 14.935250 183.296250
13045 1 31.228250 12.219750 183.296250
13046 1 31.228250 14.935250 180.580750
13047 1 27.155000 13.577500 187.369500
13048 1 29.870500 10.862000 187.369500
13049 1 29.870500 13.577500 184.654000
13050 1 28.512750 12.219750 186.011750
13051 1 28.512750 14.935250 188.727250
13052 1 31.228250 12.219750 188.727250
13053 1 31.228250 14.935250 186.011750
13054 1 27.155000 13.577500 192.800500
13055 1 29.870500 10.862000 192.800500
13056 1 29.870500 13.577500 190.085000
13057 1 28.512750 12.219750 191.442750
13058 1 28.512750 14.935250 194.158250
13059 1 31.228250 12.219750 194.158250
13060 1 31.228250 14.935250 191.442750
13061 1 27.155000 13.577500 198.231500
13062 1 29.870500 10.862000 198.231500
13063 1 29.870500 13.577500 195.516000
13064 1 28.512750 12.219750 196.873750
13065 1 28.512750 14.935250 199.589250
13066 1 31.228250 12.219750 199.589250
13067 1 31.228250 14.935250 196.873750
13068 1 27.155000 10.862000 200.947000
13069 1 27.155000 13.577500 203.662500
13070 1 29.870500 10.862000 203.662500
13071 1 29.870500 13.577500 200.947000
13072 1 28.512750 12.219750 202.304750
13073 1 28.512750 14.935250 205.020250
13074 1 31.228250 12.219750 205.020250
13075 1 31.228250 14.935250 202.304750
13076 1 27.155000 10.862000 206.378000
13077 1 27.155000 13.577500 209.093500
13078 1 29.870500 10.862000 209.093500
13079 1 29.870500 13.577500 206.378000
13080 1 28.512750 12.219750 207.735750
13081 1 28.512750 14.935250 210.451250
13082 1 31.228250 12.219750 210.451250
13083 1 31.228250 14.935250 207.735750
13084 1 27.155000 10.862000 211.809000
13085 1 27.155000 13.577500 214.524500
13086 1 29.870500 10.862000 214.524500
13087 1 29.870500 13.577500 211.809000
13088 1 28.512750 12.219750 213.166750
13089 1 28.512750 14.935250 215.882250
13090 1 31.228250 12.219750 215.882250
13091 1 31.228250 14.935250 213.166750
13092 1 27.155000 13.577500 219.955500
13093 1 29.870500 10.862000 219.955500
13094 1 29.870500 13.577500 217.240000
13095 1 28.512750 12.219750 218.597750
13096 1 28.512750 14.935250 221.313250
13097 1 31.228250 12.219750 221.313250
13098 1 31.228250 14.935250 218.597750
13099 1 27.155000 13.577500 225.386500
13100 1 29.870500 10.862000 225.386500
13101 1 29.870500 13.577500 222.671000
13102 1 28.512750 12.219750 224.028750
13103 1 28.512750 14.935250 226.744250
13104 1 31.228250 12.219750 226.744250
13105 1 31.228250 14.935250 224.028750
13106 1 27.155000 13.577500 230.817500
13107 1 29.870500 10.862000 230.817500
13108 1 29.870500 13.577500 228.102000
13109 1 28.512750 12.219750 229.459750
13110 1 28.512750 14.935250 232.175250
13111 1 31.228250 12.219750 232.175250
13112 1 31.228250 14.935250 229.459750
13113 1 27.155000 13.577500 236.248500
13114 1 29.870500 10.862000 236.248500
13115 1 29.870500 13.577500 233.533000
13116 1 28.512750 12.219750 234.890750
13117 1 28.512750 14.935250 237.606250
13118 1 31.228250 12.219750 237.606250
13119 1 31.228250 14.935250 234.890750
13120 1 27.155000 13.577500 241.679500
13121 1 29.870500 10.862000 241.679500
13122 1 29.870500 13.577500 238.964000
13123 1 28.512750 12.219750 240.321750
13124 1 28.512750 14.935250 243.037250
13125 1 31.228250 12.219750 243.037250
13126 1 31.228250 14.935250 240.321750
13127 1 27.155000 10.862000 244.395000
13128 1 27.155000 13.577500 247.110500
13129 1 29.870500 10.862000 247.110500
13130 1 29.870500 13.577500 244.395000
13131 1 28.512750 12.219750 245.752750
13132 1 28.512750 14.935250 248.468250
13133 1 31.228250 12.219750 248.468250
13134 1 31.228250 14.935250 245.752750
13135 1 27.155000 10.862000 249.826000
13136 1 27.155000 13.577500 252.541500
13137 1 29.870500 10.862000 252.541500
13138 1 29.870500 13.577500 249.826000
13139 1 28.512750 12.219750 251.183750
13140 1 28.512750 14.935250 253.899250
13141 1 31.228250 12.219750 253.899250
13142 1 31.228250 14.935250 251.183750
13143 1 27.155000 10.862000 255.257000
13144 1 27.155000 13.577500 257.972500
13145 1 29.870500 10.862000 257.972500
13146 1 29.870500 13.577500 255.257000
13147 1 28.512750 12.219750 256.614750
13148 1 28.512750 14.935250 259.330250
13149 1 31.228250 12.219750 259.330250
13150 1 31.228250 14.935250 256.614750
13151 1 27.155000 16.293000 0.000000
13152 1 27.155000 19.008500 2.715500
13153 1 29.870500 16.293000 2.715500
13154 1 29.870500 19.008500 0.000000
13155 1 28.512750 17.650750 1.357750
13156 1 28.512750 20.366250 4.073250
13157 1 31.228250 17.650750 4.073250
13158 1 31.228250 20.366250 1.357750
13159 1 27.155000 16.293000 5.431000
13160 1 27.155000 19.008500 8.146500
13161 1 29.870500 16.293000 8.146500
13162 1 29.870500 19.008500 5.431000
13163 1 28.512750 17.650750 6.788750
13164 1 28.512750 20.366250 9.504250
13165 1 31.228250 17.650750 9.504250
13166 1 31.228250 20.366250 6.788750
13167 1 27.155000 16.293000 10.862000
13168 1 27.155000 19.008500 13.577500
13169 1 29.870500 16.293000 13.577500
13170 1 29.870500 19.008500 10.862000
13171 1 28.512750 17.650750 12.219750
13172 1 28.512750 20.366250 14.935250
13173 1 31.228250 17.650750 14.935250
13174 1 31.228250 20.366250 12.219750
13175 1 27.155000 16.293000 16.293000
13176 1 27.155000 19.008500 19.008500
13177 1 29.870500 16.293000 19.008500
13178 1 29.870500 19.008500 16.293000
13179 1 28.512750 17.650750 17.650750
13180 1 28.512750 20.366250 20.366250
13181 1 31.228250 17.650750 20.366250
13182 1 31.228250 20.366250 17.650750
13183 1 27.155000 19.008500 46.163500
13184 1 29.870500 16.293000 46.163500
13185 1 28.512750 17.650750 44.805750
13186 1 28.512750 20.366250 47.521250
13187 1 31.228250 17.650750 47.521250
13188 1 31.228250 20.366250 44.805750
13189 1 27.155000 16.293000 48.879000
13190 1 27.155000 19.008500 51.594500
13191 1 29.870500 16.293000 51.594500
13192 1 29.870500 19.008500 48.879000
13193 1 28.512750 17.650750 50.236750
13194 1 28.512750 20.366250 52.952250
13195 1 31.228250 17.650750 52.952250
13196 1 31.228250 20.366250 50.236750
13197 1 27.155000 16.293000 54.310000
13198 1 27.155000 19.008500 57.025500
13199 1 29.870500 16.293000 57.025500
13200 1 29.870500 19.008500 54.310000
13201 1 28.512750 17.650750 55.667750
13202 1 28.512750 20.366250 58.383250
13203 1 31.228250 17.650750 58.383250
13204 1 31.228250 20.366250 55.667750
13205 1 27.155000 16.293000 59.741000
13206 1 27.155000 19.008500 62.456500
13207 1 29.870500 16.293000 62.456500
13208 1 29.870500 19.008500 59.741000
13209 1 28.512750 17.650750 61.098750
13210 1 28.512750 20.366250 63.814250
13211 1 31.228250 17.650750 63.814250
13212 1 31.228250 20.366250 61.098750
13213 1 27.155000 19.008500 89.611500
13214 1 29.870500 16.293000 89.611500
13215 1 28.512750 17.650750 88.253750
13216 1 28.512750 20.366250 90.969250
13217 1 31.228250 17.650750 90.969250
13218 1 31.228250 20.366250 88.253750
13219 1 27.155000 16.293000 92.327000
13220 1 27.155000 19.008500 95.042500
13221 1 29.870500 16.293000 95.042500
13222 1 29.870500 19.008500 92.327000
13223 1 28.512750 17.650750 93.684750
13224 1 28.512750 20.366250 96.400250
13225 1 31.228250 17.650750 96.400250
13226 1 31.228250 20.366250 93.684750
13227 1 27.155000 16.293000 97.758000
13228 1 27.155000 19.008500 100.473500
13229 1 29.870500 16.293000 100.473500
13230 1 29.870500 19.008500 97.758000
13231 1 28.512750 17.650750 99.115750
13232 1 28.512750 20.366250 101.831250
13233 1 31.228250 17.650750 101.831250
13234 1 31.228250 20.366250 99.115750
13235 1 27.155000 16.293000 103.189000
13236 1 27.155000 19.008500 105.904500
13237 1 29.870500 16.293000 105.904500
13238 1 29.870500 19.008500 103.189000
13239 1 28.512750 17.650750 104.546750
13240 1 28.512750 20.366250 107.262250
13241 1 31.228250 17.650750 107.262250
13242 1 31.228250 20.366250 104.546750
13243 1 27.155000 19.008500 133.059500
13244 1 29.870500 16.293000 133.059500
13245 1 28.512750 17.650750 131.701750
13246 1 28.512750 20.366250 134.417250
13247 1 31.228250 17.650750 134.417250
13248 1 31.228250 20.366250 131.701750
13249 1 27.155000 16.293000 135.775000
13250 1 27.155000 19.008500 138.490500
13251 1 29.870500 16.293000 138.490500
13252 1 29.870500 19.008500 135.775000
13253 1 28.512750 17.650750 137.132750
13254 1 28.512750 20.366250 139.848250
13255 1 31.228250 17.650750 139.848250
13256 1 31.228250 20.366250 137.132750
13257 1 27.155000 16.293000 141.206000
13258 1 27.155000 19.008500 143.921500
13259 1 29.870500 16.293000 143.921500
13260 1 29.870500 19.008500 141.206000
13261 1 28.512750 17.650750 142.563750
13262 1 28.512750 20.366250 145.279250
13263 1 31.228250 17.650750 145.279250
13264 1 31.228250 20.366250 142.563750
13265 1 27.155000 16.293000 146.637000
13266 1 27.155000 19.008500 149.352500
13267 1 29.870500 16.293000 149.352500
13268 1 29.870500 19.008500 146.637000
13269 1 28.512750 17.650750 147.994750
13270 1 28.512750 20.366250 150.710250
13271 1 31.228250 17.650750 150.710250
13272 1 31.228250 20.366250 147.994750
13273 1 27.155000 19.008500 176.507500
13274 1 29.870500 16.293000 176.507500
13275 1 28.512750 17.650750 175.149750
13276 1 28.512750 20.366250 177.865250
13277 1 31.228250 17.650750 177.865250
13278 1 31.228250 20.366250 175.149750
13279 1 27.155000 16.293000 179.223000
13280 1 27.155000 19.008500 181.938500
13281 1 29.870500 16.293000 181.938500
13282 1 29.870500 19.008500 179.223000
13283 1 28.512750 17.650750 180.580750
13284 1 28.512750 20.366250 183.296250
13285 1 31.228250 17.650750 183.296250
13286 1 31.228250 20.366250 180.580750
13287 1 27.155000 16.293000 184.654000
13288 1 27.155000 19.008500 187.369500
13289 1 29.870500 16.293000 187.369500
13290 1 29.870500 19.008500 184.654000
13291 1 28.512750 17.650750 186.011750
13292 1 28.512750 20.366250 188.727250
13293 1 31.228250 17.650750 188.727250
13294 1 31.228250 20.366250 186.011750
13295 1 27.155000 16.293000 190.085000
13296 1 27.155000 19.008500 192.800500
13297 1 29.870500 16.293000 192.800500
13298 1 29.870500 19.008500 190.085000
13299 1 28.512750 17.650750 191.442750
13300 1 28.512750 20.366250 194.158250
13301 1 31.228250 17.650750 194.158250
13302 1 31.228250 20.366250 191.442750
13303 1 27.155000 19.008500 219.955500
13304 1 29.870500 16.293000 219.955500
13305 1 28.512750 17.650750 218.597750
13306 1 28.512750 20.366250 221.313250
13307 1 31.228250 17.650750 221.313250
13308 1 31.228250 20.366250 218.597750
13309 1 27.155000 16.293000 222.671000
13310 1 27.155000 19.008500 225.386500
13311 1 29.870500 16.293000 225.386500
13312 1 29.870500 19.008500 222.671000
13313 1 28.512750 17.650750 224.028750
13314 1 28.512750 20.366250 226.744250
13315 1 31.228250 17.650750 226.744250
13316 1 31.228250 20.366250 224.028750
13317 1 27.155000 16.293000 228.102000
13318 1 27.155000 19.008500 230.817500
13319 1 29.870500 16.293000 230.817500
13320 1 29.870500 19.008500 228.102000
13321 1 28.512750 17.650750 229.459750
13322 1 28.512750 20.366250 232.175250
13323 1 31.228250 17.650750 232.175250
13324 1 31.228250 20.366250 229.459750
13325 1 27.155000 16.293000 233.533000
13326 1 27.155000 19.008500 236.248500
13327 1 29.870500 16.293000 236.248500
13328 1 29.870500 19.008500 233.533000
13329 1 28.512750 17.650750 234.890750
13330 1 28.512750 20.366250 237.606250
13331 1 31.228250 17.650750 237.606250
13332 1 31.228250 20.366250 234.890750
13333 1 27.155000 21.724000 0.000000
13334 1 27.155000 24.439500 2.715500
13335 1 29.870500 21.724000 2.715500
13336 1 29.870500 24.439500 0.000000
13337 1 28.512750 23.081750 1.357750
13338 1 28.512750 25.797250 4.073250
13339 1 31.228250 23.081750 4.073250
13340 1 31.228250 25.797250 1.357750
13341 1 27.155000 21.724000 5.431000
13342 1 27.155000 24.439500 8.146500
13343 1 29.870500 21.724000 8.146500
13344 1 29.870500 24.439500 5.431000
13345 1 28.512750 23.081750 6.788750
13346 1 28.512750 25.797250 9.504250
13347 1 31.228250 23.081750 9.504250
13348 1 31.228250 25.797250 6.788750
13349 1 27.155000 21.724000 10.862000
13350 1 27.155000 24.439500 13.577500
13351 1 29.870500 21.724000 13.577500
13352 1 29.870500 24.439500 10.862000
13353 1 28.512750 23.081750 12.219750
13354 1 28.512750 25.797250 14.935250
13355 1 31.228250 23.081750 14.935250
13356 1 31.228250 25.797250 12.219750
13357 1 27.155000 21.724000 16.293000
13358 1 27.155000 24.439500 19.008500
13359 1 29.870500 21.724000 19.008500
13360 1 29.870500 24.439500 16.293000
13361 1 28.512750 23.081750 17.650750
13362 1 28.512750 25.797250 20.366250
13363 1 31.228250 23.081750 20.366250
13364 1 31.228250 25.797250 17.650750
13365 1 27.155000 24.439500 46.163500
13366 1 29.870500 21.724000 46.163500
13367 1 28.512750 23.081750 44.805750
13368 1 28.512750 25.797250 47.521250
13369 1 31.228250 23.081750 47.521250
13370 1 31.228250 25.797250 44.805750
13371 1 27.155000 21.724000 48.879000
13372 1 27.155000 24.439500 51.594500
13373 1 29.870500 21.724000 51.594500
13374 1 29.870500 24.439500 48.879000
13375 1 28.512750 23.081750 50.236750
13376 1 28.512750 25.797250 52.952250
13377 1 31.228250 23.081750 52.952250
13378 1 31.228250 25.797250 50.236750
13379 1 27.155000 21.724000 54.310000
13380 1 27.155000 24.439500 57.025500
13381 1 29.870500 21.724000 57.025500
13382 1 29.870500 24.439500 54.310000
13383 1 28.512750 23.081750 55.667750
13384 1 28.512750 25.797250 58.383250
13385 1 31.228250 23.081750 58.383250
13386 1 31.228250 25.797250 55.667750
13387 1 27.155000 21.724000 59.741000
13388 1 27.155000 24.439500 62.456500
13389 1 29.870500 21.724000 62.456500
13390 1 29.870500 24.439500 59.741000
13391 1 28.512750 23.081750 61.098750
13392 1 28.512750 25.797250 63.814250
13393 1 31.228250 23.081750 63.814250
13394 1 31.228250 25.797250 61.098750
13395 1 27.155000 24.439500 89.611500
13396 1 29.870500 21.724000 89.611500
13397 1 28.512750 23.081750 88.253750
13398 1 28.512750 25.797250 90.969250
13399 1 31.228250 23.081750 90.969250
13400 1 31.228250 25.797250 88.253750
13401 1 27.155000 21.724000 92.327000
13402 1 27.155000 24.439500 95.042500
13403 1 29.870500 21.724000 95.042500
13404 1 29.870500 24.439500 92.327000
13405 1 28.512750 23.081750 93.684750
13406 1 28.512750 25.797250 96.400250
13407 1 31.228250 23.081750 96.400250
13408 1 31.228250 25.797250 93.684750
13409 1 27.155000 21.724000 97.758000
13410 1 27.155000 24.439500 100.473500
13411 1 29.870500 21.724000 100.473500
13412 1 29.870500 24.439500 97.758000
13413 1 28.512750 23.081750 99.115750
13414 1 28.512750 25.797250 101.831250
13415 1 31.228250 23.081750 101.831250
13416 1 31.228250 25.797250 99.115750
13417 1 27.155000 21.724000 103.189000
13418 1 27.155000 24.439500 105.904500
13419 1 29.870500 21.724000 105.904500
13420 1 29.870500 24.439500 103.189000
13421 1 28.512750 23.081750 104.546750
13422 1 28.512750 25.797250 107.262250
13423 1 31.228250 23.081750 107.262250
13424 1 31.228250 25.797250 104.546750
13425 1 27.155000 24.439500 133.059500
13426 1 29.870500 21.724000 133.059500
13427 1 28.512750 23.081750 131.701750
13428 1 28.512750 25.797250 134.417250
13429 1 31.228250 23.081750 134.417250
13430 1 31.228250 25.797250 131.701750
13431 1 27.155000 21.724000 135.775000
13432 1 27.155000 24.439500 138.490500
13433 1 29.870500 21.724000 138.490500
13434 1 29.870500 24.439500 135.775000
13435 1 28.512750 23.081750 137.132750
13436 1 28.512750 25.797250 139.848250
13437 1 31.228250 23.081750 139.848250
13438 1 31.228250 25.797250 137.132750
13439 1 27.155000 21.724000 141.206000
13440 1 27.155000 24.439500 143.921500
13441 1 29.870500 21.724000 143.921500
13442 1 29.870500 24.439500 141.206000
13443 1 28.512750 23.081750 142.563750
13444 1 28.512750 25.797250 145.279250
13445 1 31.228250 23.081750 145.279250
13446 1 31.228250 25.797250 142.563750
13447 1 27.155000 21.724000 146.637000
13448 1 27.155000 24.439500 149.352500
13449 1 29.870500 21.724000 149.352500
13450 1 29.870500 24.439500 146.637000
13451 1 28.512750 23.081750 147.994750
13452 1 28.512750 25.797250 150.710250
13453 1 31.228250 23.081750 150.710250
13454 1 31.228250 25.797250 147.994750
13455 1 27.155000 24.439500 176.507500
13456 1 29.870500 21.724000 176.507500
13457 1 28.512750 23.081750 175.149750
13458 1 28.512750 25.797250 177.865250
13459 1 31.228250 23.081750 177.865250
13460 1 31.228250 25.797250 175.149750
13461 1 27.155000 21.724000 179.223000
13462 1 27.155000 24.439500 181.938500
13463 1 29.870500 21.724000 181.938500
13464 1 29.870500 24.439500 179.223000
13465 1 28.512750 23.081750 180.580750
13466 1 28.512750 25.797250 183.296250
13467 1 31.228250 23.081750 183.296250
13468 1 31.228250 25.797250 180.580750
13469 1 27.155000 21.724000 184.654000
13470 1 27.155000 24.439500 187.369500
13471 1 29.870500 21.724000 187.369500
13472 1 29.870500 24.439500 184.654000
13473 1 28.512750 23.081750 186.011750
13474 1 28.512750 25.797250 188.727250
13475 1 31.228250 23.081750 188.727250
13476 1 31.228250 25.797250 186.011750
13477 1 27.155000 21.724000 190.085000
13478 1 27.155000 24.439500 192.800500
13479 1 29.870500 21.724000 192.800500
13480 1 29.870500 24.439500 190.085000
13481 1 28.512750 23.081750 191.442750
13482 1 28.512750 25.797250 194.158250
13483 1 31.228250 23.081750 194.158250
13484 1 31.228250 25.797250 191.442750
13485 1 27.155000 24.439500 219.955500
13486 1 29.870500 21.724000 219.955500
13487 1 28.512750 23.081750 218.597750
13488 1 28.512750 25.797250 221.313250
13489 1 31.228250 23.081750 221.313250
13490 1 31.228250 25.797250 218.597750
13491 1 27.155000 21.724000 222.671000
13492 1 27.155000 24.439500 225.386500
13493 1 29.870500 21.724000 225.386500
13494 1 29.870500 24.439500 222.671000
13495 1 28.512750 23.081750 224.028750
13496 1 28.512750 25.797250 226.744250
13497 1 31.228250 23.081750 226.744250
13498 1 31.228250 25.797250 224.028750
13499 1 27.155000 21.724000 228.102000
13500 1 27.155000 24.439500 230.817500
13501 1 29.870500 21.724000 230.817500
13502 1 29.870500 24.439500 228.102000
13503 1 28.512750 23.081750 229.459750
13504 1 28.512750 25.797250 232.175250
13505 1 31.228250 23.081750 232.175250
13506 1 31.228250 25.797250 229.459750
13507 1 27.155000 21.724000 233.533000
13508 1 27.155000 24.439500 236.248500
13509 1 29.870500 21.724000 236.248500
13510 1 29.870500 24.439500 233.533000
13511 1 28.512750 23.081750 234.890750
13512 1 28.512750 25.797250 237.606250
13513 1 31.228250 23.081750 237.606250
13514 1 31.228250 25.797250 234.890750
13515 1 27.155000 27.155000 0.000000
13516 1 27.155000 29.870500 2.715500
13517 1 29.870500 27.155000 2.715500
13518 1 29.870500 29.870500 0.000000
13519 1 28.512750 28.512750 1.357750
13520 1 28.512750 31.228250 4.073250
13521 1 31.228250 28.512750 4.073250
13522 1 31.228250 31.228250 1.357750
13523 1 27.155000 27.155000 5.431000
13524 1 27.155000 29.870500 8.146500
13525 1 29.870500 27.155000 8.146500
13526 1 29.870500 29.870500 5.431000
13527 1 28.512750 28.512750 6.788750
13528 1 28.512750 31.228250 9.504250
13529 1 31.228250 28.512750 9.504250
13530 1 31.228250 31.228250 6.788750
13531 1 27.155000 27.155000 10.862000
13532 1 27.155000 29.870500 13.577500
13533 1 29.870500 27.155000 13.577500
13534 1 29.870500 29.870500 10.862000
13535 1 28.512750 28.512750 12.219750
13536 1 28.512750 31.228250 14.935250
13537 1 31.228250 28.512750 14.935250
13538 1 31.228250 31.228250 12.219750
13539 1 27.155000 27.155000 16.293000
13540 1 27.155000 29.870500 19.008500
13541 1 29.870500 27.155000 19.008500
13542 1 29.870500 29.870500 16.293000
13543 1 28.512750 28.512750 17.650750
13544 1 28.512750 31.228250 20.366250
13545 1 31.228250 28.512750 20.366250
13546 1 31.228250 31.228250 17.650750
13547 1 27.155000 29.870500 24.439500
13548 1 29.870500 29.870500 21.724000
13549 1 28.512750 28.512750 23.081750
13550 1 28.512750 31.228250 25.797250
13551 1 31.228250 28.512750 25.797250
13552 1 31.228250 31.228250 23.081750
13553 1 27.155000 29.870500 29.870500
13554 1 29.870500 29.870500 27.155000
13555 1 28.512750 28.512750 28.512750
13556 1 28.512750 31.228250 31.228250
13557 1 31.228250 28.512750 31.228250
13558 1 31.228250 31.228250 28.512750
13559 1 27.155000 29.870500 35.301500
13560 1 29.870500 29.870500 32.586000
13561 1 28.512750 28.512750 33.943750
13562 1 28.512750 31.228250 36.659250
13563 1 31.228250 28.512750 36.659250
13564 1 31.228250 31.228250 33.943750
13565 1 27.155000 29.870500 40.732500
13566 1 29.870500 29.870500 38.017000
13567 1 28.512750 28.512750 39.374750
13568 1 28.512750 31.228250 42.090250
13569 1 31.228250 28.512750 42.090250
13570 1 31.228250 31.228250 39.374750
13571 1 27.155000 29.870500 46.163500
13572 1 29.870500 27.155000 46.163500
13573 1 29.870500 29.870500 43.448000
13574 1 28.512750 28.512750 44.805750
13575 1 28.512750 31.228250 47.521250
13576 1 31.228250 28.512750 47.521250
13577 1 31.228250 31.228250 44.805750
13578 1 27.155000 27.155000 48.879000
13579 1 27.155000 29.870500 51.594500
13580 1 29.870500 27.155000 51.594500
13581 1 29.870500 29.870500 48.879000
13582 1 28.512750 28.512750 50.236750
13583 1 28.512750 31.228250 52.952250
13584 1 31.228250 28.512750 52.952250
13585 1 31.228250 31.228250 50.236750
13586 1 27.155000 27.155000 54.310000
13587 1 27.155000 29.870500 57.025500
13588 1 29.870500 27.155000 57.025500
13589 1 29.870500 29.870500 54.310000
13590 1 28.512750 28.512750 55.667750
13591 1 28.512750 31.228250 58.383250
13592 1 31.228250 28.512750 58.383250
13593 1 31.228250 31.228250 55.667750
13594 1 27.155000 27.155000 59.741000
13595 1 27.155000 29.870500 62.456500
13596 1 29.870500 27.155000 62.456500
13597 1 29.870500 29.870500 59.741000
13598 1 28.512750 28.512750 61.098750
13599 1 28.512750 31.228250 63.814250
13600 1 31.228250 28.512750 63.814250
13601 1 31.228250 31.228250 61.098750
13602 1 27.155000 29.870500 67.887500
13603 1 29.870500 29.870500 65.172000
13604 1 28.512750 28.512750 66.529750
13605 1 28.512750 31.228250 69.245250
13606 1 31.228250 28.512750 69.245250
13607 1 31.228250 31.228250 66.529750
13608 1 27.155000 29.870500 73.318500
13609 1 29.870500 29.870500 70.603000
13610 1 28.512750 28.512750 71.960750
13611 1 28.512750 31.228250 74.676250
13612 1 31.228250 28.512750 74.676250
13613 1 31.228250 31.228250 71.960750
13614 1 27.155000 29.870500 78.749500
13615 1 29.870500 29.870500 76.034000
13616 1 28.512750 28.512750 77.391750
13617 1 28.512750 31.228250 80.107250
13618 1 31.228250 28.512750 80.107250
13619 1 31.228250 31.228250 77.391750
13620 1 27.155000 29.870500 84.180500
13621 1 29.870500 29.870500 81.465000
13622 1 28.512750 28.512750 82.822750
13623 1 28.512750 31.228250 85.538250
13624 1 31.228250 28.512750 85.538250
13625 1 31.228250 31.228250 82.822750
13626 1 27.155000 29.870500 89.611500
13627 1 29.870500 27.155000 89.611500
13628 1 29.870500 29.870500 86.896000
13629 1 28.512750 28.512750 88.253750
13630 1 28.512750 31.228250 90.969250
13631 1 31.228250 28.512750 90.969250
13632 1 31.228250 31.228250 88.253750
13633 1 27.155000 27.155000 92.327000
13634 1 27.155000 29.870500 95.042500
13635 1 29.870500 27.155000 95.042500
13636 1 29.870500 29.870500 92.327000
13637 1 28.512750 28.512750 93.684750
13638 1 28.512750 31.228250 96.400250
13639 1 31.228250 28.512750 96.400250
13640 1 31.228250 31.228250 93.684750
13641 1 27.155000 27.155000 97.758000
13642 1 27.155000 29.870500 100.473500
13643 1 29.870500 27.155000 100.473500
13644 1 29.870500 29.870500 97.758000
13645 1 28.512750 28.512750 99.115750
13646 1 28.512750 31.228250 101.831250
13647 1 31.228250 28.512750 101.831250
13648 1 31.228250 31.228250 99.115750
13649 1 27.155000 27.155000 103.189000
13650 1 27.155000 29.870500 105.904500
13651 1 29.870500 27.155000 105.904500
13652 1 29.870500 29.870500 103.189000
13653 1 28.512750 28.512750 104.546750
13654 1 28.512750 31.228250 107.262250
13655 1 31.228250 28.512750 107.262250
13656 1 31.228250 31.228250 104.546750
13657 1 27.155000 29.870500 111.335500
13658 1 29.870500 29.870500 108.620000
13659 1 28.512750 28.512750 109.977750
13660 1 28.512750 31.228250 112.693250
13661 1 31.228250 28.512750 112.693250
13662 1 31.228250 31.228250 109.977750
13663 1 27.155000 29.870500 116.766500
13664 1 29.870500 29.870500 114.051000
13665 1 28.512750 28.512750 115.408750
13666 1 28.512750 31.228250 118.124250
13667 1 31.228250 28.512750 118.124250
13668 1 31.228250 31.228250 115.408750
13669 1 27.155000 29.870500 122.197500
13670 1 29.870500 29.870500 119.482000
13671 1 28.512750 28.512750 120.839750
13672 1 28.512750 31.228250 123.555250
13673 1 31.228250 28.512750 123.555250
13674 1 31.228250 31.228250 120.839750
13675 1 27.155000 29.870500 127.628500
13676 1 29.870500 29.870500 124.913000
13677 1 28.512750 28.512750 126.270750
13678 1 28.512750 31.228250 128.986250
13679 1 31.228250 28.512750 128.986250
13680 1 31.228250 31.228250 126.270750
13681 1 27.155000 29.870500 133.059500
13682 1 29.870500 27.155000 133.059500
13683 1 29.870500 29.870500 130.344000
13684 1 28.512750 28.512750 131.701750
13685 1 28.512750 31.228250 134.417250
13686 1 31.228250 28.512750 134.417250
13687 1 31.228250 31.228250 131.701750
13688 1 27.155000 27.155000 135.775000
13689 1 27.155000 29.870500 138.490500
13690 1 29.870500 27.155000 138.490500
13691 1 29.870500 29.870500 135.775000
13692 1 28.512750 28.512750 137.132750
13693 1 28.512750 31.228250 139.848250
13694 1 31.228250 28.512750 139.848250
13695 1 31.228250 31.228250 137.132750
13696 1 27.155000 27.155000 141.206000
13697 1 27.155000 29.870500 143.921500
13698 1 29.870500 27.155000 143.921500
13699 1 29.870500 29.870500 141.206000
13700 1 28.512750 28.512750 142.563750
13701 1 28.512750 31.228250 145.279250
13702 1 31.228250 28.512750 145.279250
13703 1 31.228250 31.228250 142.563750
13704 1 27.155000 27.155000 146.637000
13705 1 27.155000 29.870500 149.352500
13706 1 29.870500 27.155000 149.352500
13707 1 29.870500 29.870500 146.637000
13708 1 28.512750 28.512750 147.994750
13709 1 28.512750 31.228250 150.710250
13710 1 31.228250 28.512750 150.710250
13711 1 31.228250 31.228250 147.994750
13712 1 27.155000 29.870500 154.783500
13713 1 29.870500 29.870500 152.068000
13714 1 28.512750 28.512750 153.425750
13715 1 28.512750 31.228250 156.141250
13716 1 31.228250 28.512750 156.141250
13717 1 31.228250 31.228250 153.425750
13718 1 27.155000 29.870500 160.214500
13719 1 29.870500 29.870500 157.499000
13720 1 28.512750 28.512750 158.856750
13721 1 28.512750 31.228250 161.572250
13722 1 31.228250 28.512750 161.572250
13723 1 31.228250 31.228250 158.856750
13724 1 27.155000 29.870500 165.645500
13725 1 29.870500 29.870500 162.930000
13726 1 28.512750 28.512750 164.287750
13727 1 28.512750 31.228250 167.003250
13728 1 31.228250 28.512750 167.003250
13729 1 31.228250 31.228250 164.287750
13730 1 27.155000 29.870500 171.076500
13731 1 29.870500 29.870500 168.361000
13732 1 28.512750 28.512750 169.718750
13733 1 28.512750 31.228250 172.434250
13734 1 31.228250 28.512750 172.434250
13735 1 31.228250 31.228250 169.718750
13736 1 27.155000 29.870500 176.507500
13737 1 29.870500 27.155000 176.507500
13738 1 29.870500 29.870500 173.792000
13739 1 28.512750 28.512750 175.149750
13740 1 28.512750 31.228250 177.865250
13741 1 31.228250 28.512750 177.865250
13742 1 31.228250 31.228250 175.149750
13743 1 27.155000 27.155000 179.223000
13744 1 27.155000 29.870500 181.938500
13745 1 29.870500 27.155000 181.938500
13746 1 29.870500 29.870500 179.223000
13747 1 28.512750 28.512750 180.580750
13748 1 28.512750 31.228250 183.296250
13749 1 31.228250 28.512750 183.296250
13750 1 31.228250 31.228250 180.580750
13751 1 27.155000 27.155000 184.654000
13752 1 27.155000 29.870500 187.369500
13753 1 29.870500 27.155000 187.369500
13754 1 29.870500 29.870500 184.654000
13755 1 28.512750 28.512750 186.011750
13756 1 28.512750 31.228250 188.727250
13757 1 31.228250 28.512750 188.727250
13758 1 31.228250 31.228250 186.011750
13759 1 27.155000 27.155000 190.085000
13760 1 27.155000 29.870500 192.800500
13761 1 29.870500 27.155000 192.800500
13762 1 29.870500 29.870500 190.085000
13763 1 28.512750 28.512750 191.442750
13764 1 28.512750 31.228250 194.158250
13765 1 31.228250 28.512750 194.158250
13766 1 31.228250 31.228250 191.442750
13767 1 27.155000 29.870500 198.231500
13768 1 29.870500 29.870500 195.516000
13769 1 28.512750 28.512750 196.873750
13770 1 28.512750 31.228250 199.589250
13771 1 31.228250 28.512750 199.589250
13772 1 31.228250 31.228250 196.873750
13773 1 27.155000 29.870500 203.662500
13774 1 29.870500 29.870500 200.947000
13775 1 28.512750 28.512750 202.304750
13776 1 28.512750 31.228250 205.020250
13777 1 31.228250 28.512750 205.020250
13778 1 31.228250 31.228250 202.304750
13779 1 27.155000 29.870500 209.093500
13780 1 29.870500 29.870500 206.378000
13781 1 28.512750 28.512750 207.735750
13782 1 28.512750 31.228250 210.451250
13783 1 31.228250 28.512750 210.451250
13784 1 31.228250 31.228250 207.735750
13785 1 27.155000 29.870500 214.524500
13786 1 29.870500 29.870500 211.809000
13787 1 28.512750 28.512750 213.166750
13788 1 28.512750 31.228250 215.882250
13789 1 31.228250 28.512750 215.882250
13790 1 31.228250 31.228250 213.166750
13791 1 27.155000 29.870500 219.955500
13792 1 29.870500 27.155000 219.955500
13793 1 29.870500 29.870500 217.240000
13794 1 28.512750 28.512750 218.597750
13795 1 28.512750 31.228250 221.313250
13796 1 31.228250 28.512750 221.313250
13797 1 31.228250 31.228250 218.597750
13798 1 27.155000 27.155000 222.671000
13799 1 27.155000 29.870500 225.386500
13800 1 29.870500 27.155000 225.386500
13801 1 29.870500 29.870500 222.671000
13802 1 28.512750 28.512750 224.028750
13803 1 28.512750 31.228250 226.744250
13804 1 31.228250 28.512750 226.744250
13805 1 31.228250 31.228250 224.028750
13806 1 27.155000 27.155000 228.102000
13807 1 27.155000 29.870500 230.817500
13808 1 29.870500 27.155000 230.817500
13809 1 29.870500 29.870500 228.102000
13810 1 28.512750 28.512750 229.459750
13811 1 28.512750 31.228250 232.175250
13812 1 31.228250 28.512750 232.175250
13813 1 31.228250 31.228250 229.459750
13814 1 27.155000 27.155000 233.533000
13815 1 27.155000 29.870500 236.248500
13816 1 29.870500 27.155000 236.248500
13817 1 29.870500 29.870500 233.533000
13818 1 28.512750 28.512750 234.890750
13819 1 28.512750 31.228250 237.606250
13820 1 31.228250 28.512750 237.606250
13821 1 31.228250 31.228250 234.890750
13822 1 27.155000 29.870500 241.679500
13823 1 29.870500 29.870500 238.964000
13824 1 28.512750 28.512750 240.321750
13825 1 28.512750 31.228250 243.037250
13826 1 31.228250 28.512750 243.037250
13827 1 31.228250 31.228250 240.321750
13828 1 27.155000 29.870500 247.110500
13829 1 29.870500 29.870500 244.395000
13830 1 28.512750 28.512750 245.752750
13831 1 28.512750 31.228250 248.468250
13832 1 31.228250 28.512750 248.468250
13833 1 31.228250 31.228250 245.752750
13834 1 27.155000 29.870500 252.541500
13835 1 29.870500 29.870500 249.826000
13836 1 28.512750 28.512750 251.183750
13837 1 28.512750 31.228250 253.899250
13838 1 31.228250 28.512750 253.899250
13839 1 31.228250 31.228250 251.183750
13840 1 27.155000 29.870500 257.972500
13841 1 29.870500 29.870500 255.257000
13842 1 28.512750 28.512750 256.614750
13843 1 28.512750 31.228250 259.330250
13844 1 31.228250 28.512750 259.330250
13845 1 31.228250 31.228250 256.614750
13846 1 27.155000 32.586000 0.000000
13847 1 27.155000 35.301500 2.715500
13848 1 29.870500 32.586000 2.715500
13849 1 29.870500 35.301500 0.000000
13850 1 28.512750 33.943750 1.357750
13851 1 28.512750 36.659250 4.073250
13852 1 31.228250 33.943750 4.073250
13853 1 31.228250 36.659250 1.357750
13854 1 27.155000 32.586000 5.431000
13855 1 27.155000 35.301500 8.146500
13856 1 29.870500 32.586000 8.146500
13857 1 29.870500 35.301500 5.431000
13858 1 28.512750 33.943750 6.788750
13859 1 28.512750 36.659250 9.504250
13860 1 31.228250 33.943750 9.504250
13861 1 31.228250 36.659250 6.788750
13862 1 27.155000 32.586000 10.862000
13863 1 27.155000 35.301500 13.577500
13864 1 29.870500 32.586000 13.577500
13865 1 29.870500 35.301500 10.862000
13866 1 28.512750 33.943750 12.219750
13867 1 28.512750 36.659250 14.935250
13868 1 31.228250 33.943750 14.935250
13869 1 31.228250 36.659250 12.219750
13870 1 27.155000 32.586000 16.293000
13871 1 27.155000 35.301500 19.008500
13872 1 29.870500 32.586000 19.008500
13873 1 29.870500 35.301500 16.293000
13874 1 28.512750 33.943750 17.650750
13875 1 28.512750 36.659250 20.366250
13876 1 31.228250 33.943750 20.366250
13877 1 31.228250 36.659250 17.650750
13878 1 27.155000 32.586000 21.724000
13879 1 27.155000 35.301500 24.439500
13880 1 29.870500 32.586000 24.439500
13881 1 29.870500 35.301500 21.724000
13882 1 28.512750 33.943750 23.081750
13883 1 28.512750 36.659250 25.797250
13884 1 31.228250 33.943750 25.797250
13885 1 31.228250 36.659250 23.081750
13886 1 27.155000 32.586000 27.155000
13887 1 27.155000 35.301500 29.870500
13888 1 29.870500 32.586000 29.870500
13889 1 29.870500 35.301500 27.155000
13890 1 28.512750 33.943750 28.512750
13891 1 28.512750 36.659250 31.228250
13892 1 31.228250 33.943750 31.228250
13893 1 31.228250 36.659250 28.512750
13894 1 27.155000 32.586000 32.586000
13895 1 27.155000 35.301500 35.301500
13896 1 29.870500 32.586000 35.301500
13897 1 29.870500 35.301500 32.586000
13898 1 28.512750 33.943750 33.943750
13899 1 28.512750 36.659250 36.659250
13900 1 31.228250 33.943750 36.659250
13901 1 31.228250 36.659250 33.943750
13902 1 27.155000 32.586000 38.017000
13903 1 27.155000 35.301500 40.732500
13904 1 29.870500 32.586000 40.732500
13905 1 29.870500 35.301500 38.017000
13906 1 28.512750 33.943750 39.374750
13907 1 28.512750 36.659250 42.090250
13908 1 31.228250 33.943750 42.090250
13909 1 31.228250 36.659250 39.374750
13910 1 27.155000 32.586000 43.448000
13911 1 27.155000 35.301500 46.163500
13912 1 29.870500 32.586000 46.163500
13913 1 29.870500 35.301500 43.448000
13914 1 28.512750 33.943750 44.805750
13915 1 28.512750 36.659250 47.521250
13916 1 31.228250 33.943750 47.521250
13917 1 31.228250 36.659250 44.805750
13918 1 27.155000 32.586000 48.879000
13919 1 27.155000 35.301500 51.594500
13920 1 29.870500 32.586000 51.594500
13921 1 29.870500 35.301500 48.879000
13922 1 28.512750 33.943750 50.236750
13923 1 28.512750 36.659250 52.952250
13924 1 31.228250 33.943750 52.952250
13925 1 31.228250 36.659250 50.236750
13926 1 27.155000 32.586000 54.310000
13927 1 27.155000 35.301500 57.025500
13928 1 29.870500 32.586000 57.025500
13929 1 29.870500 35.301500 54.310000
13930 1 28.512750 33.943750 55.667750
13931 1 28.512750 36.659250 58.383250
13932 1 31.228250 33.943750 58.383250
13933 1 31.228250 36.659250 55.667750
13934 1 27.155000 32.586000 59.741000
13935 1 27.155000 35.301500 62.456500
13936 1 29.870500 32.586000 62.456500
13937 1 29.870500 35.301500 59.741000
13938 1 28.512750 33.943750 61.098750
13939 1 28.512750 36.659250 63.814250
13940 1 31.228250 33.943750 63.814250
13941 1 31.228250 36.659250 61.098750
13942 1 27.155000 32.586000 65.172000
13943 1 27.155000 35.301500 67.887500
13944 1 29.870500 32.586000 67.887500
13945 1 29.870500 35.301500 65.172000
13946 1 28.512750 33.943750 66.529750
13947 1 28.512750 36.659250 69.245250
13948 1 31.228250 33.943750 69.245250
13949 1 31.228250 36.659250 66.529750
13950 1 27.155000 32.586000 70.603000
13951 1 27.155000 35.301500 73.318500
13952 1 29.870500 32.586000 73.318500
13953 1 29.870500 35.301500 70.603000
13954 1 28.512750 33.943750 71.960750
13955 1 28.512750 36.659250 74.676250
13956 1 31.228250 33.943750 74.676250
13957 1 31.228250 36.659250 71.960750
13958 1 27.155000 32.586000 76.034000
13959 1 27.155000 35.301500 78.749500
13960 1 29.870500 32.586000 78.749500
13961 1 29.870500 35.301500 76.034000
13962 1 28.512750 33.943750 77.391750
13963 1 28.512750 36.659250 80.107250
13964 1 31.228250 33.943750 80.107250
13965 1 31.228250 36.659250 77.391750
13966 1 27.155000 32.586000 81.465000
13967 1 27.155000 35.301500 84.180500
13968 1 29.870500 32.586000 84.180500
13969 1 29.870500 35.301500 81.465000
13970 1 28.512750 33.943750 82.822750
13971 1 28.512750 36.659250 85.538250
13972 1 31.228250 33.943750 85.538250
13973 1 31.228250 36.659250 82.822750
13974 1 27.155000 32.586000 86.896000
13975 1 27.155000 35.301500 89.611500
13976 1 29.870500 32.586000 89.611500
13977 1 29.870500 35.301500 86.896000
13978 1 28.512750 33.943750 88.253750
13979 1 28.512750 36.659250 90.969250
13980 1 31.228250 33.943750 90.969250
13981 1 31.228250 36.659250 88.253750
13982 1 27.155000 32.586000 92.327000
13983 1 27.155000 35.301500 95.042500
13984 1 29.870500 32.586000 95.042500
13985 1 29.870500 35.301500 92.327000
13986 1 28.512750 33.943750 93.684750
13987 1 28.512750 36.659250 96.400250
13988 1 31.228250 33.943750 96.400250
13989 1 31.228250 36.659250 93.684750
13990 1 27.155000 32.586000 97.758000
13991 1 27.155000 35.301500 100.473500
13992 1 29.870500 32.586000 100.473500
13993 1 29.870500 35.301500 97.758000
13994 1 28.512750 33.943750 99.115750
13995 1 28.512750 36.659250 101.831250
13996 1 31.228250 33.943750 101.831250
13997 1 31.228250 36.659250 99.115750
13998 1 27.155000 32.586000 103.189000
13999 1 27.155000 35.301500 105.904500
14000 1 29.870500 32.586000 105.904500
14001 1 29.870500 35.301500 103.189000
14002 1 28.512750 33.943750 104.546750
14003 1 28.512750 36.659250 107.262250
14004 1 31.228250 33.943750 107.262250
14005 1 31.228250 36.659250 104.546750
14006 1 27.155000 32.586000 108.620000
14007 1 27.155000 35.301500 111.335500
14008 1 29.870500 32.586000 111.335500
14009 1 29.870500 35.301500 108.620000
14010 1 28.512750 33.943750 109.977750
14011 1 28.512750 36.659250 112.693250
14012 1 31.228250 33.943750 112.693250
14013 1 31.228250 36.659250 109.977750
14014 1 27.155000 32.586000 114.051000
14015 1 27.155000 35.301500 116.766500
14016 1 29.870500 32.586000 116.766500
14017 1 29.870500 35.301500 114.051000
14018 1 28.512750 33.943750 115.408750
14019 1 28.512750 36.659250 118.124250
14020 1 31.228250 33.943750 118.124250
14021 1 31.228250 36.659250 115.408750
14022 1 27.155000 32.586000 119.482000
14023 1 27.155000 35.301500 122.197500
14024 1 29.870500 32.586000 122.197500
14025 1 29.870500 35.301500 119.482000
14026 1 28.512750 33.943750 120.839750
14027 1 28.512750 36.659250 123.555250
14028 1 31.228250 33.943750 123.555250
14029 1 31.228250 36.659250 120.839750
14030 1 27.155000 32.586000 124.913000
14031 1 27.155000 35.301500 127.628500
14032 1 29.870500 32.586000 127.628500
14033 1 29.870500 35.301500 124.913000
14034 1 28.512750 33.943750 126.270750
14035 1 28.512750 36.659250 128.986250
14036 1 31.228250 33.943750 128.986250
14037 1 31.228250 36.659250 126.270750
14038 1 27.155000 32.586000 130.344000
14039 1 27.155000 35.301500 133.059500
14040 1 29.870500 32.586000 133.059500
14041 1 29.870500 35.301500 130.344000
14042 1 28.512750 33.943750 131.701750
14043 1 28.512750 36.659250 134.417250
14044 1 31.228250 33.943750 134.417250
14045 1 31.228250 36.659250 131.701750
14046 1 27.155000 32.586000 135.775000
14047 1 27.155000 35.301500 138.490500
14048 1 29.870500 32.586000 138.490500
14049 1 29.870500 35.301500 135.775000
14050 1 28.512750 33.943750 137.132750
14051 1 28.512750 36.659250 139.848250
14052 1 31.228250 33.943750 139.848250
14053 1 31.228250 36.659250 137.132750
14054 1 27.155000 32.586000 141.206000
14055 1 27.155000 35.301500 143.921500
14056 1 29.870500 32.586000 143.921500
14057 1 29.870500 35.301500 141.206000
14058 1 28.512750 33.943750 142.563750
14059 1 28.512750 36.659250 145.279250
14060 1 31.228250 33.943750 145.279250
14061 1 31.228250 36.659250 142.563750
14062 1 27.155000 32.586000 146.637000
14063 1 27.155000 35.301500 149.352500
14064 1 29.870500 32.586000 149.352500
14065 1 29.870500 35.301500 146.637000
14066 1 28.512750 33.943750 147.994750
14067 1 28.512750 36.659250 150.710250
14068 1 31.228250 33.943750 150.710250
14069 1 31.228250 36.659250 147.994750
14070 1 27.155000 32.586000 152.068000
14071 1 27.155000 35.301500 154.783500
14072 1 29.870500 32.586000 154.783500
14073 1 29.870500 35.301500 152.068000
14074 1 28.512750 33.943750 153.425750
14075 1 28.512750 36.659250 156.141250
14076 1 31.228250 33.943750 156.141250
14077 1 31.228250 36.659250 153.425750
14078 1 27.155000 32.586000 157.499000
14079 1 27.155000 35.301500 160.214500
14080 1 29.870500 32.586000 160.214500
14081 1 29.870500 35.301500 157.499000
14082 1 28.512750 33.943750 158.856750
14083 1 28.512750 36.659250 161.572250
14084 1 31.228250 33.943750 161.572250
14085 1 31.228250 36.659250 158.856750
14086 1 27.155000 32.586000 162.930000
14087 1 27.155000 35.301500 165.645500
14088 1 29.870500 32.586000 165.645500
14089 1 29.870500 35.301500 162.930000
14090 1 28.512750 33.943750 164.287750
14091 1 28.512750 36.659250 167.003250
14092 1 31.228250 33.943750 167.003250
14093 1 31.228250 36.659250 164.287750
14094 1 27.155000 32.586000 168.361000
14095 1 27.155000 35.301500 171.076500
14096 1 29.870500 32.586000 171.076500
14097 1 29.870500 35.301500 168.361000
14098 1 28.512750 33.943750 169.718750
14099 1 28.512750 36.659250 172.434250
14100 1 31.228250 33.943750 172.434250
14101 1 31.228250 36.659250 169.718750
14102 1 27.155000 32.586000 173.792000
14103 1 27.155000 35.301500 176.507500
14104 1 29.870500 32.586000 176.507500
14105 1 29.870500 35.301500 173.792000
14106 1 28.512750 33.943750 175.149750
14107 1 28.512750 36.659250 177.865250
14108 1 31.228250 33.943750 177.865250
14109 1 31.228250 36.659250 175.149750
14110 1 27.155000 32.586000 179.223000
14111 1 27.155000 35.301500 181.938500
14112 1 29.870500 32.586000 181.938500
14113 1 29.870500 35.301500 179.223000
14114 1 28.512750 33.943750 180.580750
14115 1 28.512750 36.659250 183.296250
14116 1 31.228250 33.943750 183.296250
14117 1 31.228250 36.659250 180.580750
14118 1 27.155000 32.586000 184.654000
14119 1 27.155000 35.301500 187.369500
14120 1 29.870500 32.586000 187.369500
14121 1 29.870500 35.301500 184.654000
14122 1 28.512750 33.943750 186.011750
14123 1 28.512750 36.659250 188.727250
14124 1 31.228250 33.943750 188.727250
14125 1 31.228250 36.659250 186.011750
14126 1 27.155000 32.586000 190.085000
14127 1 27.155000 35.301500 192.800500
14128 1 29.870500 32.586000 192.800500
14129 1 29.870500 35.301500 190.085000
14130 1 28.512750 33.943750 191.442750
14131 1 28.512750 36.659250 194.158250
14132 1 31.228250 33.943750 194.158250
14133 1 31.228250 36.659250 191.442750
14134 1 27.155000 32.586000 195.516000
14135 1 27.155000 35.301500 198.231500
14136 1 29.870500 32.586000 198.231500
14137 1 29.870500 35.301500 195.516000
14138 1 28.512750 33.943750 196.873750
14139 1 28.512750 36.659250 199.589250
14140 1 31.228250 33.943750 199.589250
14141 1 31.228250 36.659250 196.873750
14142 1 27.155000 32.586000 200.947000
14143 1 27.155000 35.301500 203.662500
14144 1 29.870500 32.586000 203.662500
14145 1 29.870500 35.301500 200.947000
14146 1 28.512750 33.943750 202.304750
14147 1 28.512750 36.659250 205.020250
14148 1 31.228250 33.943750 205.020250
14149 1 31.228250 36.659250 202.304750
14150 1 27.155000 32.586000 206.378000
14151 1 27.155000 35.301500 209.093500
14152 1 29.870500 32.586000 209.093500
14153 1 29.870500 35.301500 206.378000
14154 1 28.512750 33.943750 207.735750
14155 1 28.512750 36.659250 210.451250
14156 1 31.228250 33.943750 210.451250
14157 1 31.228250 36.659250 207.735750
14158 1 27.155000 32.586000 211.809000
14159 1 27.155000 35.301500 214.524500
14160 1 29.870500 32.586000 214.524500
14161 1 29.870500 35.301500 211.809000
14162 1 28.512750 33.943750 213.166750
14163 1 28.512750 36.659250 215.882250
14164 1 31.228250 33.943750 215.882250
14165 1 31.228250 36.659250 213.166750
14166 1 27.155000 32.586000 217.240000
14167 1 27.155000 35.301500 219.955500
14168 1 29.870500 32.586000 219.955500
14169 1 29.870500 35.301500 217.240000
14170 1 28.512750 33.943750 218.597750
14171 1 28.512750 36.659250 221.313250
14172 1 31.228250 33.943750 221.313250
14173 1 31.228250 36.659250 218.597750
14174 1 27.155000 32.586000 222.671000
14175 1 27.155000 35.301500 225.386500
14176 1 29.870500 32.586000 225.386500
14177 1 29.870500 35.301500 222.671000
14178 1 28.512750 33.943750 224.028750
14179 1 28.512750 36.659250 226.744250
14180 1 31.228250 33.943750 226.744250
14181 1 31.228250 36.659250 224.028750
14182 1 27.155000 32.586000 228.102000
14183 1 27.155000 35.301500 230.817500
14184 1 29.870500 32.586000 230.817500
14185 1 29.870500 35.301500 228.102000
14186 1 28.512750 33.943750 229.459750
14187 1 28.512750 36.659250 232.175250
14188 1 31.228250 33.943750 232.175250
14189 1 31.228250 36.659250 229.459750
14190 1 27.155000 32.586000 233.533000
14191 1 27.155000 35.301500 236.248500
14192 1 29.870500 32.586000 236.248500
14193 1 29.870500 35.301500 233.533000
14194 1 28.512750 33.943750 234.890750
14195 1 28.512750 36.659250 237.606250
14196 1 31.228250 33.943750 237.606250
14197 1 31.228250 36.659250 234.890750
14198 1 27.155000 32.586000 238.964000
14199 1 27.155000 35.301500 241.679500
14200 1 29.870500 32.586000 241.679500
14201 1 29.870500 35.301500 238.964000
14202 1 28.512750 33.943750 240.321750
14203 1 28.512750 36.659250 243.037250
14204 1 31.228250 33.943750 243.037250
14205 1 31.228250 36.659250 240.321750
14206 1 27.155000 32.586000 244.395000
14207 1 27.155000 35.301500 247.110500
14208 1 29.870500 32.586000 247.110500
14209 1 29.870500 35.301500 244.395000
14210 1 28.512750 33.943750 245.752750
14211 1 28.512750 36.659250 248.468250
14212 1 31.228250 33.943750 248.468250
14213 1 31.228250 36.659250 245.752750
14214 1 27.155000 32.586000 249.826000
14215 1 27.155000 35.301500 252.541500
14216 1 29.870500 32.586000 252.541500
14217 1 29.870500 35.301500 249.826000
14218 1 28.512750 33.943750 251.183750
14219 1 28.512750 36.659250 253.899250
14220 1 31.228250 33.943750 253.899250
14221 1 31.228250 36.659250 251.183750
14222 1 27.155000 32.586000 255.257000
14223 1 27.155000 35.301500 257.972500
14224 1 29.870500 32.586000 257.972500
14225 1 29.870500 35.301500 255.257000
14226 1 28.512750 33.943750 256.614750
14227 1 28.512750 36.659250 259.330250
14228 1 31.228250 33.943750 259.330250
14229 1 31.228250 36.659250 256.614750
14230 1 27.155000 38.017000 0.000000
14231 1 27.155000 40.732500 2.715500
14232 1 29.870500 38.017000 2.715500
14233 1 29.870500 40.732500 0.000000
14234 1 28.512750 39.374750 1.357750
14235 1 28.512750 42.090250 4.073250
14236 1 31.228250 39.374750 4.073250
14237 1 31.228250 42.090250 1.357750
14238 1 27.155000 38.017000 5.431000
14239 1 27.155000 40.732500 8.146500
14240 1 29.870500 38.017000 8.146500
14241 1 29.870500 40.732500 5.431000
14242 1 28.512750 39.374750 6.788750
14243 1 28.512750 42.090250 9.504250
14244 1 31.228250 39.374750 9.504250
14245 1 31.228250 42.090250 6.788750
14246 1 27.155000 38.017000 10.862000
14247 1 27.155000 40.732500 13.577500
14248 1 29.870500 38.017000 13.577500
14249 1 29.870500 40.732500 10.862000
14250 1 28.512750 39.374750 12.219750
14251 1 28.512750 42.090250 14.935250
14252 1 31.228250 39.374750 14.935250
14253 1 31.228250 42.090250 12.219750
14254 1 27.155000 38.017000 16.293000
14255 1 27.155000 40.732500 19.008500
14256 1 29.870500 38.017000 19.008500
14257 1 29.870500 40.732500 16.293000
14258 1 28.512750 39.374750 17.650750
14259 1 28.512750 42.090250 20.366250
14260 1 31.228250 39.374750 20.366250
14261 1 31.228250 42.090250 17.650750
14262 1 27.155000 38.017000 21.724000
14263 1 27.155000 40.732500 24.439500
14264 1 29.870500 38.017000 24.439500
14265 1 29.870500 40.732500 21.724000
14266 1 28.512750 39.374750 23.081750
14267 1 28.512750 42.090250 25.797250
14268 1 31.228250 39.374750 25.797250
14269 1 31.228250 42.090250 23.081750
14270 1 27.155000 38.017000 27.155000
14271 1 27.155000 40.732500 29.870500
14272 1 29.870500 38.017000 29.870500
14273 1 29.870500 40.732500 27.155000
14274 1 28.512750 39.374750 28.512750
14275 1 28.512750 42.090250 31.228250
14276 1 31.228250 39.374750 31.228250
14277 1 31.228250 42.090250 28.512750
14278 1 27.155000 38.017000 32.586000
14279 1 27.155000 40.732500 35.301500
14280 1 29.870500 38.017000 35.301500
14281 1 29.870500 40.732500 32.586000
14282 1 28.512750 39.374750 33.943750
14283 1 28.512750 42.090250 36.659250
14284 1 31.228250 39.374750 36.659250
14285 1 31.228250 42.090250 33.943750
14286 1 27.155000 38.017000 38.017000
14287 1 27.155000 40.732500 40.732500
14288 1 29.870500 38.017000 40.732500
14289 1 29.870500 40.732500 38.017000
14290 1 28.512750 39.374750 39.374750
14291 1 28.512750 42.090250 42.090250
14292 1 31.228250 39.374750 42.090250
14293 1 31.228250 42.090250 39.374750
14294 1 27.155000 38.017000 43.448000
14295 1 27.155000 40.732500 46.163500
14296 1 29.870500 38.017000 46.163500
14297 1 29.870500 40.732500 43.448000
14298 1 28.512750 39.374750 44.805750
14299 1 28.512750 42.090250 47.521250
14300 1 31.228250 39.374750 47.521250
14301 1 31.228250 42.090250 44.805750
14302 1 27.155000 38.017000 48.879000
14303 1 27.155000 40.732500 51.594500
14304 1 29.870500 38.017000 51.594500
14305 1 29.870500 40.732500 48.879000
14306 1 28.512750 39.374750 50.236750
14307 1 28.512750 42.090250 52.952250
14308 1 31.228250 39.374750 52.952250
14309 1 31.228250 42.090250 50.236750
14310 1 27.155000 38.017000 54.310000
14311 1 27.155000 40.732500 57.025500
14312 1 29.870500 38.017000 57.025500
14313 1 29.870500 40.732500 54.310000
14314 1 28.512750 39.374750 55.667750
14315 1 28.512750 42.090250 58.383250
14316 1 31.228250 39.374750 58.383250
14317 1 31.228250 42.090250 55.667750
14318 1 27.155000 38.017000 59.741000
14319 1 27.155000 40.732500 62.456500
14320 1 29.870500 38.017000 62.456500
14321 1 29.870500 40.732500 59.741000
14322 1 28.512750 39.374750 61.098750
14323 1 28.512750 42.090250 63.814250
14324 1 31.228250 39.374750 63.814250
14325 1 31.228250 42.090250 61.098750
14326 1 27.155000 38.017000 65.172000
14327 1 27.155000 40.732500 67.887500
14328 1 29.870500 38.017000 67.887500
14329 1 29.870500 40.732500 65.172000
14330 1 28.512750 39.374750 66.529750
14331 1 28.512750 42.090250 69.245250
14332 1 31.228250 39.374750 69.245250
14333 1 31.228250 42.090250 66.529750
14334 1 27.155000 38.017000 70.603000
14335 1 27.155000 40.732500 73.318500
14336 1 29.870500 38.017000 73.318500
14337 1 29.870500 40.732500 70.603000
14338 1 28.512750 39.374750 71.960750
14339 1 28.512750 42.090250 74.676250
14340 1 31.228250 39.374750 74.676250
14341 1 31.228250 42.090250 71.960750
14342 1 27.155000 38.017000 76.034000
14343 1 27.155000 40.732500 78.749500
14344 1 29.870500 38.017000 78.749500
14345 1 29.870500 40.732500 76.034000
14346 1 28.512750 39.374750 77.391750
14347 1 28.512750 42.090250 80.107250
14348 1 31.228250 39.374750 80.107250
14349 1 31.228250 42.090250 77.391750
14350 1 27.155000 38.017000 81.465000
14351 1 27.155000 40.732500 84.180500
14352 1 29.870500 38.017000 84.180500
14353 1 29.870500 40.732500 81.465000
14354 1 28.512750 39.374750 82.822750
14355 1 28.512750 42.090250 85.538250
14356 1 31.228250 39.374750 85.538250
14357 1 31.228250 42.090250 82.822750
14358 1 27.155000 38.017000 86.896000
14359 1 27.155000 40.732500 89.611500
14360 1 29.870500 38.017000 89.611500
14361 1 29.870500 40.732500 86.896000
14362 1 28.512750 39.374750 88.253750
14363 1 28.512750 42.090250 90.969250
14364 1 31.228250 39.374750 90.969250
14365 1 31.228250 42.090250 88.253750
14366 1 27.155000 38.017000 92.327000
14367 1 27.155000 40.732500 95.042500
14368 1 29.870500 38.017000 95.042500
14369 1 29.870500 40.732500 92.327000
14370 1 28.512750 39.374750 93.684750
14371 1 28.512750 42.090250 96.400250
14372 1 31.228250 39.374750 96.400250
14373 1 31.228250 42.090250 93.684750
14374 1 27.155000 38.017000 97.758000
14375 1 27.155000 40.732500 100.473500
14376 1 29.870500 38.017000 100.473500
14377 1 29.870500 40.732500 97.758000
14378 1 28.512750 39.374750 99.115750
14379 1 28.512750 42.090250 101.831250
14380 1 31.228250 39.374750 101.831250
14381 1 31.228250 42.090250 99.115750
14382 1 27.155000 38.017000 103.189000
14383 1 27.155000 40.732500 105.904500
14384 1 29.870500 38.017000 105.904500
14385 1 29.870500 40.732500 103.189000
14386 1 28.512750 39.374750 104.546750
14387 1 28.512750 42.090250 107.262250
14388 1 31.228250 39.374750 107.262250
14389 1 31.228250 42.090250 104.546750
14390 1 27.155000 38.017000 108.620000
14391 1 27.155000 40.732500 111.335500
14392 1 29.870500 38.017000 111.335500
14393 1 29.870500 40.732500 108.620000
14394 1 28.512750 39.374750 109.977750
14395 1 28.512750 42.090250 112.693250
14396 1 31.228250 39.374750 112.693250
14397 1 31.228250 42.090250 109.977750
14398 1 27.155000 38.017000 114.051000
14399 1 27.155000 40.732500 116.766500
14400 1 29.870500 38.017000 116.766500
14401 1 29.870500 40.732500 114.051000
14402 1 28.512750 39.374750 115.408750
14403 1 28.512750 42.090250 118.124250
14404 1 31.228250 39.374750 118.124250
14405 1 31.228250 42.090250 115.408750
14406 1 27.155000 38.017000 119.482000
14407 1 27.155000 40.732500 122.197500
14408 1 29.870500 38.017000 122.197500
14409 1 29.870500 40.732500 119.482000
14410 1 28.512750 39.374750 120.839750
14411 1 28.512750 42.090250 123.555250
14412 1 31.228250 39.374750 123.555250
14413 1 31.228250 42.090250 120.839750
14414 1 27.155000 38.017000 124.913000
14415 1 27.155000 40.732500 127.628500
14416 1 29.870500 38.017000 127.628500
14417 1 29.870500 40.732500 124.913000
14418 1 28.512750 39.374750 126.270750
14419 1 28.512750 42.090250 128.986250
14420 1 31.228250 39.374750 128.986250
14421 1 31.228250 42.090250 126.270750
14422 1 27.155000 38.017000 130.344000
14423 1 27.155000 40.732500 133.059500
14424 1 29.870500 38.017000 133.059500
14425 1 29.870500 40.732500 130.344000
14426 1 28.512750 39.374750 131.701750
14427 1 28.512750 42.090250 134.417250
14428 1 31.228250 39.374750 134.417250
14429 1 31.228250 42.090250 131.701750
14430 1 27.155000 38.017000 135.775000
14431 1 27.155000 40.732500 138.490500
14432 1 29.870500 38.017000 138.490500
14433 1 29.870500 40.732500 135.775000
14434 1 28.512750 39.374750 137.132750
14435 1 28.512750 42.090250 139.848250
14436 1 31.228250 39.374750 139.848250
14437 1 31.228250 42.090250 137.132750
14438 1 27.155000 38.017000 141.206000
14439 1 27.155000 40.732500 143.921500
14440 1 29.870500 38.017000 143.921500
14441 1 29.870500 40.732500 141.206000
14442 1 28.512750 39.374750 142.563750
14443 1 28.512750 42.090250 145.279250
14444 1 31.228250 39.374750 145.279250
14445 1 31.228250 42.090250 142.563750
14446 1 27.155000 38.017000 146.637000
14447 1 27.155000 40.732500 149.352500
14448 1 29.870500 38.017000 149.352500
14449 1 29.870500 40.732500 146.637000
14450 1 28.512750 39.374750 147.994750
14451 1 28.512750 42.090250 150.710250
14452 1 31.228250 39.374750 150.710250
14453 1 31.228250 42.090250 147.994750
14454 1 27.155000 38.017000 152.068000
14455 1 27.155000 40.732500 154.783500
14456 1 29.870500 38.017000 154.783500
14457 1 29.870500 40.732500 152.068000
14458 1 28.512750 39.374750 153.425750
14459 1 28.512750 42.090250 156.141250
14460 1 31.228250 39.374750 156.141250
14461 1 31.228250 42.090250 153.425750
14462 1 27.155000 38.017000 157.499000
14463 1 27.155000 40.732500 160.214500
14464 1 29.870500 38.017000 160.214500
14465 1 29.870500 40.732500 157.499000
14466 1 28.512750 39.374750 158.856750
14467 1 28.512750 42.090250 161.572250
14468 1 31.228250 39.374750 161.572250
14469 1 31.228250 42.090250 158.856750
14470 1 27.155000 38.017000 162.930000
14471 1 27.155000 40.732500 165.645500
14472 1 29.870500 38.017000 165.645500
14473 1 29.870500 40.732500 162.930000
14474 1 28.512750 39.374750 164.287750
14475 1 28.512750 42.090250 167.003250
14476 1 31.228250 39.374750 167.003250
14477 1 31.228250 42.090250 164.287750
14478 1 27.155000 38.017000 168.361000
14479 1 27.155000 40.732500 171.076500
14480 1 29.870500 38.017000 171.076500
14481 1 29.870500 40.732500 168.361000
14482 1 28.512750 39.374750 169.718750
14483 1 28.512750 42.090250 172.434250
14484 1 31.228250 39.374750 172.434250
14485 1 31.228250 42.090250 169.718750
14486 1 27.155000 38.017000 173.792000
14487 1 27.155000 40.732500 176.507500
14488 1 29.870500 38.017000 176.507500
14489 1 29.870500 40.732500 173.792000
14490 1 28.512750 39.374750 175.149750
14491 1 28.512750 42.090250 177.865250
14492 1 31.228250 39.374750 177.865250
14493 1 31.228250 42.090250 175.149750
14494 1 27.155000 38.017000 179.223000
14495 1 27.155000 40.732500 181.938500
14496 1 29.870500 38.017000 181.938500
14497 1 29.870500 40.732500 179.223000
14498 1 28.512750 39.374750 180.580750
14499 1 28.512750 42.090250 183.296250
14500 1 31.228250 39.374750 183.296250
14501 1 31.228250 42.090250 180.580750
14502 1 27.155000 38.017000 184.654000
14503 1 27.155000 40.732500 187.369500
14504 1 29.870500 38.017000 187.369500
14505 1 29.870500 40.732500 184.654000
14506 1 28.512750 39.374750 186.011750
14507 1 28.512750 42.090250 188.727250
14508 1 31.228250 39.374750 188.727250
14509 1 31.228250 42.090250 186.011750
14510 1 27.155000 38.017000 190.085000
14511 1 27.155000 40.732500 192.800500
14512 1 29.870500 38.017000 192.800500
14513 1 29.870500 40.732500 190.085000
14514 1 28.512750 39.374750 191.442750
14515 1 28.512750 42.090250 194.158250
14516 1 31.228250 39.374750 194.158250
14517 1 31.228250 42.090250 191.442750
14518 1 27.155000 38.017000 195.516000
14519 1 27.155000 40.732500 198.231500
14520 1 29.870500 38.017000 198.231500
14521 1 29.870500 40.732500 195.516000
14522 1 28.512750 39.374750 196.873750
14523 1 28.512750 42.090250 199.589250
14524 1 31.228250 39.374750 199.589250
14525 1 31.228250 42.090250 196.873750
14526 1 27.155000 38.017000 200.947000
14527 1 27.155000 40.732500 203.662500
14528 1 29.870500 38.017000 203.662500
14529 1 29.870500 40.732500 200.947000
14530 1 28.512750 39.374750 202.304750
14531 1 28.512750 42.090250 205.020250
14532 1 31.228250 39.374750 205.020250
14533 1 31.228250 42.090250 202.304750
14534 1 27.155000 38.017000 206.378000
14535 1 27.155000 40.732500 209.093500
14536 1 29.870500 38.017000 209.093500
14537 1 29.870500 40.732500 206.378000
14538 1 28.512750 39.374750 207.735750
14539 1 28.512750 42.090250 210.451250
14540 1 31.228250 39.374750 210.451250
14541 1 31.228250 42.090250 207.735750
14542 1 27.155000 38.017000 211.809000
14543 1 27.155000 40.732500 214.524500
14544 1 29.870500 38.017000 214.524500
14545 1 29.870500 40.732500 211.809000
14546 1 28.512750 39.374750 213.166750
14547 1 28.512750 42.090250 215.882250
14548 1 31.228250 39.374750 215.882250
14549 1 31.228250 42.090250 213.166750
14550 1 27.155000 38.017000 217.240000
14551 1 27.155000 40.732500 219.955500
14552 1 29.870500 38.017000 219.955500
14553 1 29.870500 40.732500 217.240000
14554 1 28.512750 39.374750 218.597750
14555 1 28.512750 42.090250 221.313250
14556 1 31.228250 39.374750 221.313250
14557 1 31.228250 42.090250 218.597750
14558 1 27.155000 38.017000 222.671000
14559 1 27.155000 40.732500 225.386500
14560 1 29.870500 38.017000 225.386500
14561 1 29.870500 40.732500 222.671000
14562 1 28.512750 39.374750 224.028750
14563 1 28.512750 42.090250 226.744250
14564 1 31.228250 39.374750 226.744250
14565 1 31.228250 42.090250 224.028750
14566 1 27.155000 38.017000 228.102000
14567 1 27.155000 40.732500 230.817500
14568 1 29.870500 38.017000 230.817500
14569 1 29.870500 40.732500 228.102000
14570 1 28.512750 39.374750 229.459750
14571 1 28.512750 42.090250 232.175250
14572 1 31.228250 39.374750 232.175250
14573 1 31.228250 42.090250 229.459750
14574 1 27.155000 38.017000 233.533000
14575 1 27.155000 40.732500 236.248500
14576 1 29.870500 38.017000 236.248500
14577 1 29.870500 40.732500 233.533000
14578 1 28.512750 39.374750 234.890750
14579 1 28.512750 42.090250 237.606250
14580 1 31.228250 39.374750 237.606250
14581 1 31.228250 42.090250 234.890750
14582 1 27.155000 38.017000 238.964000
14583 1 27.155000 40.732500 241.679500
14584 1 29.870500 38.017000 241.679500
14585 1 29.870500 40.732500 238.964000
14586 1 28.512750 39.374750 240.321750
14587 1 28.512750 42.090250 243.037250
14588 1 31.228250 39.374750 243.037250
14589 1 31.228250 42.090250 240.321750
14590 1 27.155000 38.017000 244.395000
14591 1 27.155000 40.732500 247.110500
14592 1 29.870500 38.017000 247.110500
14593 1 29.870500 40.732500 244.395000
14594 1 28.512750 39.374750 245.752750
14595 1 28.512750 42.090250 248.468250
14596 1 31.228250 39.374750 248.468250
14597 1 31.228250 42.090250 245.752750
14598 1 27.155000 38.017000 249.826000
14599 1 27.155000 40.732500 252.541500
14600 1 29.870500 38.017000 252.541500
14601 1 29.870500 40.732500 249.826000
14602 1 28.512750 39.374750 251.183750
14603 1 28.512750 42.090250 253.899250
14604 1 31.228250 39.374750 253.899250
14605 1 31.228250 42.090250 251.183750
14606 1 27.155000 38.017000 255.257000
14607 1 27.155000 40.732500 257.972500
14608 1 29.870500 38.017000 257.972500
14609 1 29.870500 40.732500 255.257000
14610 1 28.512750 39.374750 256.614750
14611 1 28.512750 42.090250 259.330250
14612 1 31.228250 39.374750 259.330250
14613 1 31.228250 42.090250 256.614750
14614 1 32.586000 0.000000 0.000000
14615 1 32.586000 2.715500 2.715500
14616 1 35.301500 0.000000 2.715500
14617 1 35.301500 2.715500 0.000000
14618 1 33.943750 1.357750 1.357750
14619 1 33.943750 4.073250 4.073250
14620 1 36.659250 1.357750 4.073250
14621 1 36.659250 4.073250 1.357750
14622 1 32.586000 0.000000 5.431000
14623 1 32.586000 2.715500 8.146500
14624 1 35.301500 0.000000 8.146500
14625 1 35.301500 2.715500 5.431000
14626 1 33.943750 1.357750 6.788750
14627 1 33.943750 4.073250 9.504250
14628 1 36.659250 1.357750 9.504250
14629 1 36.659250 4.073250 6.788750
14630 1 32.586000 0.000000 10.862000
14631 1 32.586000 2.715500 13.577500
14632 1 35.301500 0.000000 13.577500
14633 1 35.301500 2.715500 10.862000
14634 1 33.943750 1.357750 12.219750
14635 1 33.943750 4.073250 14.935250
14636 1 36.659250 1.357750 14.935250
14637 1 36.659250 4.073250 12.219750
14638 1 32.586000 0.000000 16.293000
14639 1 32.586000 2.715500 19.008500
14640 1 35.301500 0.000000 19.008500
14641 1 35.301500 2.715500 16.293000
14642 1 33.943750 1.357750 17.650750
14643 1 33.943750 4.073250 20.366250
14644 1 36.659250 1.357750 20.366250
14645 1 36.659250 4.073250 17.650750
14646 1 32.586000 0.000000 21.724000
14647 1 32.586000 2.715500 24.439500
14648 1 35.301500 0.000000 24.439500
14649 1 35.301500 2.715500 21.724000
14650 1 33.943750 1.357750 23.081750
14651 1 33.943750 4.073250 25.797250
14652 1 36.659250 1.357750 25.797250
14653 1 36.659250 4.073250 23.081750
14654 1 32.586000 0.000000 27.155000
14655 1 32.586000 2.715500 29.870500
14656 1 35.301500 0.000000 29.870500
14657 1 35.301500 2.715500 27.155000
14658 1 33.943750 1.357750 28.512750
14659 1 33.943750 4.073250 31.228250
14660 1 36.659250 1.357750 31.228250
14661 1 36.659250 4.073250 28.512750
14662 1 32.586000 0.000000 32.586000
14663 1 32.586000 2.715500 35.301500
14664 1 35.301500 0.000000 35.301500
14665 1 35.301500 2.715500 32.586000
14666 1 33.943750 1.357750 33.943750
14667 1 33.943750 4.073250 36.659250
14668 1 36.659250 1.357750 36.659250
14669 1 36.659250 4.073250 33.943750
14670 1 32.586000 0.000000 38.017000
14671 1 32.586000 2.715500 40.732500
14672 1 35.301500 0.000000 40.732500
14673 1 35.301500 2.715500 38.017000
14674 1 33.943750 1.357750 39.374750
14675 1 33.943750 4.073250 42.090250
14676 1 36.659250 1.357750 42.090250
14677 1 36.659250 4.073250 39.374750
14678 1 32.586000 0.000000 43.448000
14679 1 32.586000 2.715500 46.163500
14680 1 35.301500 0.000000 46.163500
14681 1 35.301500 2.715500 43.448000
14682 1 33.943750 1.357750 44.805750
14683 1 33.943750 4.073250 47.521250
14684 1 36.659250 1.357750 47.521250
14685 1 36.659250 4.073250 44.805750
14686 1 32.586000 0.000000 48.879000
14687 1 32.586000 2.715500 51.594500
14688 1 35.301500 0.000000 51.594500
14689 1 35.301500 2.715500 48.879000
14690 1 33.943750 1.357750 50.236750
14691 1 33.943750 4.073250 52.952250
14692 1 36.659250 1.357750 52.952250
14693 1 36.659250 4.073250 50.236750
14694 1 32.586000 0.000000 54.310000
14695 1 32.586000 2.715500 57.025500
14696 1 35.301500 0.000000 57.025500
14697 1 35.301500 2.715500 54.310000
14698 1 33.943750 1.357750 55.667750
14699 1 33.943750 4.073250 58.383250
14700 1 36.659250 1.357750 58.383250
14701 1 36.659250 4.073250 55.667750
14702 1 32.586000 0.000000 59.741000
14703 1 32.586000 2.715500 62.456500
14704 1 35.301500 0.000000 62.456500
14705 1 35.301500 2.715500 59.741000
14706 1 33.943750 1.357750 61.098750
14707 1 33.943750 4.073250 63.814250
14708 1 36.659250 1.357750 63.814250
14709 1 36.659250 4.073250 61.098750
14710 1 32.586000 0.000000 65.172000
14711 1 32.586000 2.715500 67.887500
14712 1 35.301500 0.000000 67.887500
14713 1 35.301500 2.715500 65.172000
14714 1 33.943750 1.357750 66.529750
14715 1 33.943750 4.073250 69.245250
14716 1 36.659250 1.357750 69.245250
14717 1 36.659250 4.073250 66.529750
14718 1 32.586000 0.000000 70.603000
14719 1 32.586000 2.715500 73.318500
14720 1 35.301500 0.000000 73.318500
14721 1 35.301500 2.715500 70.603000
14722 1 33.943750 1.357750 71.960750
14723 1 33.943750 4.073250 74.676250
14724 1 36.659250 1.357750 74.676250
14725 1 36.659250 4.073250 71.960750
14726 1 32.586000 0.000000 76.034000
14727 1 32.586000 2.715500 78.749500
14728 1 35.301500 0.000000 78.749500
14729 1 35.301500 2.715500 76.034000
14730 1 33.943750 1.357750 77.391750
14731 1 33.943750 4.073250 80.107250
14732 1 36.659250 1.357750 80.107250
14733 1 36.659250 4.073250 77.391750
14734 1 32.586000 0.000000 81.465000
14735 1 32.586000 2.715500 84.180500
14736 1 35.301500 0.000000 84.180500
14737 1 35.301500 2.715500 81.465000
14738 1 33.943750 1.357750 82.822750
14739 1 33.943750 4.073250 85.538250
14740 1 36.659250 1.357750 85.538250
14741 1 36.659250 4.073250 82.822750
14742 1 32.586000 0.000000 86.896000
14743 1 32.586000 2.715500 89.611500
14744 1 35.301500 0.000000 89.611500
14745 1 35.301500 2.715500 86.896000
14746 1 33.943750 1.357750 88.253750
14747 1 33.943750 4.073250 90.969250
14748 1 36.659250 1.357750 90.969250
14749 1 36.659250 4.073250 88.253750
14750 1 32.586000 0.000000 92.327000
14751 1 32.586000 2.715500 95.042500
14752 1 35.301500 0.000000 95.042500
14753 1 35.301500 2.715500 92.327000
14754 1 33.943750 1.357750 93.684750
14755 1 33.943750 4.073250 96.400250
14756 1 36.659250 1.357750 96.400250
14757 1 36.659250 4.073250 93.684750
14758 1 32.586000 0.000000 97.758000
14759 1 32.586000 2.715500 100.473500
14760 1 35.301500 0.000000 100.473500
14761 1 35.301500 2.715500 97.758000
14762 1 33.943750 1.357750 99.115750
14763 1 33.943750 4.073250 101.831250
14764 1 36.659250 1.357750 101.831250
14765 1 36.659250 4.073250 99.115750
14766 1 32.586000 0.000000 103.189000
14767 1 32.586000 2.715500 105.904500
14768 1 35.301500 0.000000 105.904500
14769 1 35.301500 2.715500 103.189000
14770 1 33.943750 1.357750 104.546750
14771 1 33.943750 4.073250 107.262250
14772 1 36.659250 1.357750 107.262250
14773 1 36.659250 4.073250 104.546750
14774 1 32.586000 0.000000 108.620000
14775 1 32.586000 2.715500 111.335500
14776 1 35.301500 0.000000 111.335500
14777 1 35.301500 2.715500 108.620000
14778 1 33.943750 1.357750 109.977750
14779 1 33.943750 4.073250 112.693250
14780 1 36.659250 1.357750 112.693250
14781 1 36.659250 4.073250 109.977750
14782 1 32.586000 0.000000 114.051000
14783 1 32.586000 2.715500 116.766500
14784 1 35.301500 0.000000 116.766500
14785 1 35.301500 2.715500 114.051000
14786 1 33.943750 1.357750 115.408750
14787 1 33.943750 4.073250 118.124250
14788 1 36.659250 1.357750 118.124250
14789 1 36.659250 4.073250 115.408750
14790 1 32.586000 0.000000 119.482000
14791 1 32.586000 2.715500 122.197500
14792 1 35.301500 0.000000 122.197500
14793 1 35.301500 2.715500 119.482000
14794 1 33.943750 1.357750 120.839750
14795 1 33.943750 4.073250 123.555250
14796 1 36.659250 1.357750 123.555250
14797 1 36.659250 4.073250 120.839750
14798 1 32.586000 0.000000 124.913000
14799 1 32.586000 2.715500 127.628500
14800 1 35.301500 0.000000 127.628500
14801 1 35.301500 2.715500 124.913000
14802 1 33.943750 1.357750 126.270750
14803 1 33.943750 4.073250 128.986250
14804 1 36.659250 1.357750 128.986250
14805 1 36.659250 4.073250 126.270750
14806 1 32.586000 0.000000 130.344000
14807 1 32.586000 2.715500 133.059500
14808 1 35.301500 0.000000 133.059500
14809 1 35.301500 2.715500 130.344000
14810 1 33.943750 1.357750 131.701750
14811 1 33.943750 4.073250 134.417250
14812 1 36.659250 1.357750 134.417250
14813 1 36.659250 4.073250 131.701750
14814 1 32.586000 0.000000 135.775000
14815 1 32.586000 2.715500 138.490500
14816 1 35.301500 0.000000 138.490500
14817 1 35.301500 2.715500 135.775000
14818 1 33.943750 1.357750 137.132750
14819 1 33.943750 4.073250 139.848250
14820 1 36.659250 1.357750 139.848250
14821 1 36.659250 4.073250 137.132750
14822 1 32.586000 0.000000 141.206000
14823 1 32.586000 2.715500 143.921500
14824 1 35.301500 0.000000 143.921500
14825 1 35.301500 2.715500 141.206000
14826 1 33.943750 1.357750 142.563750
14827 1 33.943750 4.073250 145.279250
14828 1 36.659250 1.357750 145.279250
14829 1 36.659250 4.073250 142.563750
14830 1 32.586000 0.000000 146.637000
14831 1 32.586000 2.715500 149.352500
14832 1 35.301500 0.000000 149.352500
14833 1 35.301500 2.715500 146.637000
14834 1 33.943750 1.357750 147.994750
14835 1 33.943750 4.073250 150.710250
14836 1 36.659250 1.357750 150.710250
14837 1 36.659250 4.073250 147.994750
14838 1 32.586000 0.000000 152.068000
14839 1 32.586000 2.715500 154.783500
14840 1 35.301500 0.000000 154.783500
14841 1 35.301500 2.715500 152.068000
14842 1 33.943750 1.357750 153.425750
14843 1 33.943750 4.073250 156.141250
14844 1 36.659250 1.357750 156.141250
14845 1 36.659250 4.073250 153.425750
14846 1 32.586000 0.000000 157.499000
14847 1 32.586000 2.715500 160.214500
14848 1 35.301500 0.000000 160.214500
14849 1 35.301500 2.715500 157.499000
14850 1 33.943750 1.357750 158.856750
14851 1 33.943750 4.073250 161.572250
14852 1 36.659250 1.357750 161.572250
14853 1 36.659250 4.073250 158.856750
14854 1 32.586000 0.000000 162.930000
14855 1 32.586000 2.715500 165.645500
14856 1 35.301500 0.000000 165.645500
14857 1 35.301500 2.715500 162.930000
14858 1 33.943750 1.357750 164.287750
14859 1 33.943750 4.073250 167.003250
14860 1 36.659250 1.357750 167.003250
14861 1 36.659250 4.073250 164.287750
14862 1 32.586000 0.000000 168.361000
14863 1 32.586000 2.715500 171.076500
14864 1 35.301500 0.000000 171.076500
14865 1 35.301500 2.715500 168.361000
14866 1 33.943750 1.357750 169.718750
14867 1 33.943750 4.073250 172.434250
14868 1 36.659250 1.357750 172.434250
14869 1 36.659250 4.073250 169.718750
14870 1 32.586000 0.000000 173.792000
14871 1 32.586000 2.715500 176.507500
14872 1 35.301500 0.000000 176.507500
14873 1 35.301500 2.715500 173.792000
14874 1 33.943750 1.357750 175.149750
14875 1 33.943750 4.073250 177.865250
14876 1 36.659250 1.357750 177.865250
14877 1 36.659250 4.073250 175.149750
14878 1 32.586000 0.000000 179.223000
14879 1 32.586000 2.715500 181.938500
14880 1 35.301500 0.000000 181.938500
14881 1 35.301500 2.715500 179.223000
14882 1 33.943750 1.357750 180.580750
14883 1 33.943750 4.073250 183.296250
14884 1 36.659250 1.357750 183.296250
14885 1 36.659250 4.073250 180.580750
14886 1 32.586000 0.000000 184.654000
14887 1 32.586000 2.715500 187.369500
14888 1 35.301500 0.000000 187.369500
14889 1 35.301500 2.715500 184.654000
14890 1 33.943750 1.357750 186.011750
14891 1 33.943750 4.073250 188.727250
14892 1 36.659250 1.357750 188.727250
14893 1 36.659250 4.073250 186.011750
14894 1 32.586000 0.000000 190.085000
14895 1 32.586000 2.715500 192.800500
14896 1 35.301500 0.000000 192.800500
14897 1 35.301500 2.715500 190.085000
14898 1 33.943750 1.357750 191.442750
14899 1 33.943750 4.073250 194.158250
14900 1 36.659250 1.357750 194.158250
14901 1 36.659250 4.073250 191.442750
14902 1 32.586000 0.000000 195.516000
14903 1 32.586000 2.715500 198.231500
14904 1 35.301500 0.000000 198.231500
14905 1 35.301500 2.715500 195.516000
14906 1 33.943750 1.357750 196.873750
14907 1 33.943750 4.073250 199.589250
14908 1 36.659250 1.357750 199.589250
14909 1 36.659250 4.073250 196.873750
14910 1 32.586000 0.000000 200.947000
14911 1 32.586000 2.715500 203.662500
14912 1 35.301500 0.000000 203.662500
14913 1 35.301500 2.715500 200.947000
14914 1 33.943750 1.357750 202.304750
14915 1 33.943750 4.073250 205.020250
14916 1 36.659250 1.357750 205.020250
14917 1 36.659250 4.073250 202.304750
14918 1 32.586000 0.000000 206.378000
14919 1 32.586000 2.715500 209.093500
14920 1 35.301500 0.000000 209.093500
14921 1 35.301500 2.715500 206.378000
14922 1 33.943750 1.357750 207.735750
14923 1 33.943750 4.073250 210.451250
14924 1 36.659250 1.357750 210.451250
14925 1 36.659250 4.073250 207.735750
14926 1 32.586000 0.000000 211.809000
14927 1 32.586000 2.715500 214.524500
14928 1 35.301500 0.000000 214.524500
14929 1 35.301500 2.715500 211.809000
14930 1 33.943750 1.357750 213.166750
14931 1 33.943750 4.073250 215.882250
14932 1 36.659250 1.357750 215.882250
14933 1 36.659250 4.073250 213.166750
14934 1 32.586000 0.000000 217.240000
14935 1 32.586000 2.715500 219.955500
14936 1 35.301500 0.000000 219.955500
14937 1 35.301500 2.715500 217.240000
14938 1 33.943750 1.357750 218.597750
14939 1 33.943750 4.073250 221.313250
14940 1 36.659250 1.357750 221.313250
14941 1 36.659250 4.073250 218.597750
14942 1 32.586000 0.000000 222.671000
14943 1 32.586000 2.715500 225.386500
14944 1 35.301500 0.000000 225.386500
14945 1 35.301500 2.715500 222.671000
14946 1 33.943750 1.357750 224.028750
14947 1 33.943750 4.073250 226.744250
14948 1 36.659250 1.357750 226.744250
14949 1 36.659250 4.073250 224.028750
14950 1 32.586000 0.000000 228.102000
14951 1 32.586000 2.715500 230.817500
14952 1 35.301500 0.000000 230.817500
14953 1 35.301500 2.715500 228.102000
14954 1 33.943750 1.357750 229.459750
14955 1 33.943750 4.073250 232.175250
14956 1 36.659250 1.357750 232.175250
14957 1 36.659250 4.073250 229.459750
14958 1 32.586000 0.000000 233.533000
14959 1 32.586000 2.715500 236.248500
14960 1 35.301500 0.000000 236.248500
14961 1 35.301500 2.715500 233.533000
14962 1 33.943750 1.357750 234.890750
14963 1 33.943750 4.073250 237.606250
14964 1 36.659250 1.357750 237.606250
14965 1 36.659250 4.073250 234.890750
14966 1 32.586000 0.000000 238.964000
14967 1 32.586000 2.715500 241.679500
14968 1 35.301500 0.000000 241.679500
14969 1 35.301500 2.715500 238.964000
14970 1 33.943750 1.357750 240.321750
14971 1 33.943750 4.073250 243.037250
14972 1 36.659250 1.357750 243.037250
14973 1 36.659250 4.073250 240.321750
14974 1 32.586000 0.000000 244.395000
14975 1 32.586000 2.715500 247.110500
14976 1 35.301500 0.000000 247.110500
14977 1 35.301500 2.715500 244.395000
14978 1 33.943750 1.357750 245.752750
14979 1 33.943750 4.073250 248.468250
14980 1 36.659250 1.357750 248.468250
14981 1 36.659250 4.073250 245.752750
14982 1 32.586000 0.000000 249.826000
14983 1 32.586000 2.715500 252.541500
14984 1 35.301500 0.000000 252.541500
14985 1 35.301500 2.715500 249.826000
14986 1 33.943750 1.357750 251.183750
14987 1 33.943750 4.073250 253.899250
14988 1 36.659250 1.357750 253.899250
14989 1 36.659250 4.073250 251.183750
14990 1 32.586000 0.000000 255.257000
14991 1 32.586000 2.715500 257.972500
14992 1 35.301500 0.000000 257.972500
14993 1 35.301500 2.715500 255.257000
14994 1 33.943750 1.357750 256.614750
14995 1 33.943750 4.073250 259.330250
14996 1 36.659250 1.357750 259.330250
14997 1 36.659250 4.073250 256.614750
14998 1 32.586000 5.431000 0.000000
14999 1 32.586000 8.146500 2.715500
15000 1 35.301500 5.431000 2.715500
15001 1 35.301500 8.146500 0.000000
15002 1 33.943750 6.788750 1.357750
15003 1 33.943750 9.504250 4.073250
15004 1 36.659250 6.788750 4.073250
15005 1 36.659250 9.504250 1.357750
15006 1 32.586000 5.431000 5.431000
15007 1 32.586000 8.146500 8.146500
15008 1 35.301500 5.431000 8.146500
15009 1 35.301500 8.146500 5.431000
15010 1 33.943750 6.788750 6.788750
15011 1 33.943750 9.504250 9.504250
15012 1 36.659250 6.788750 9.504250
15013 1 36.659250 9.504250 6.788750
15014 1 32.586000 5.431000 10.862000
15015 1 32.586000 8.146500 13.577500
15016 1 35.301500 5.431000 13.577500
15017 1 35.301500 8.146500 10.862000
15018 1 33.943750 6.788750 12.219750
15019 1 33.943750 9.504250 14.935250
15020 1 36.659250 6.788750 14.935250
15021 1 36.659250 9.504250 12.219750
15022 1 32.586000 5.431000 16.293000
15023 1 32.586000 8.146500 19.008500
15024 1 35.301500 5.431000 19.008500
15025 1 35.301500 8.146500 16.293000
15026 1 33.943750 6.788750 17.650750
15027 1 33.943750 9.504250 20.366250
15028 1 36.659250 6.788750 20.366250
15029 1 36.659250 9.504250 17.650750
15030 1 32.586000 5.431000 21.724000
15031 1 32.586000 8.146500 24.439500
15032 1 35.301500 5.431000 24.439500
15033 1 35.301500 8.146500 21.724000
15034 1 33.943750 6.788750 23.081750
15035 1 33.943750 9.504250 25.797250
15036 1 36.659250 6.788750 25.797250
15037 1 36.659250 9.504250 23.081750
15038 1 32.586000 5.431000 27.155000
15039 1 32.586000 8.146500 29.870500
15040 1 35.301500 5.431000 29.870500
15041 1 35.301500 8.146500 27.155000
15042 1 33.943750 6.788750 28.512750
15043 1 33.943750 9.504250 31.228250
15044 1 36.659250 6.788750 31.228250
15045 1 36.659250 9.504250 28.512750
15046 1 32.586000 5.431000 32.586000
15047 1 32.586000 8.146500 35.301500
15048 1 35.301500 5.431000 35.301500
15049 1 35.301500 8.146500 32.586000
15050 1 33.943750 6.788750 33.943750
15051 1 33.943750 9.504250 36.659250
15052 1 36.659250 6.788750 36.659250
15053 1 36.659250 9.504250 33.943750
15054 1 32.586000 5.431000 38.017000
15055 1 32.586000 8.146500 40.732500
15056 1 35.301500 5.431000 40.732500
15057 1 35.301500 8.146500 38.017000
15058 1 33.943750 6.788750 39.374750
15059 1 33.943750 9.504250 42.090250
15060 1 36.659250 6.788750 42.090250
15061 1 36.659250 9.504250 39.374750
15062 1 32.586000 5.431000 43.448000
15063 1 32.586000 8.146500 46.163500
15064 1 35.301500 5.431000 46.163500
15065 1 35.301500 8.146500 43.448000
15066 1 33.943750 6.788750 44.805750
15067 1 33.943750 9.504250 47.521250
15068 1 36.659250 6.788750 47.521250
15069 1 36.659250 9.504250 44.805750
15070 1 32.586000 5.431000 48.879000
15071 1 32.586000 8.146500 51.594500
15072 1 35.301500 5.431000 51.594500
15073 1 35.301500 8.146500 48.879000
15074 1 33.943750 6.788750 50.236750
15075 1 33.943750 9.504250 52.952250
15076 1 36.659250 6.788750 52.952250
15077 1 36.659250 9.504250 50.236750
15078 1 32.586000 5.431000 54.310000
15079 1 32.586000 8.146500 57.025500
15080 1 35.301500 5.431000 57.025500
15081 1 35.301500 8.146500 54.310000
15082 1 33.943750 6.788750 55.667750
15083 1 33.943750 9.504250 58.383250
15084 1 36.659250 6.788750 58.383250
15085 1 36.659250 9.504250 55.667750
15086 1 32.586000 5.431000 59.741000
15087 1 32.586000 8.146500 62.456500
15088 1 35.301500 5.431000 62.456500
15089 1 35.301500 8.146500 59.741000
15090 1 33.943750 6.788750 61.098750
15091 1 33.943750 9.504250 63.814250
15092 1 36.659250 6.788750 63.814250
15093 1 36.659250 9.504250 61.098750
15094 1 32.586000 5.431000 65.172000
15095 1 32.586000 8.146500 67.887500
15096 1 35.301500 5.431000 67.887500
15097 1 35.301500 8.146500 65.172000
15098 1 33.943750 6.788750 66.529750
15099 1 33.943750 9.504250 69.245250
15100 1 36.659250 6.788750 69.245250
15101 1 36.659250 9.504250 66.529750
15102 1 32.586000 5.431000 70.603000
15103 1 32.586000 8.146500 73.318500
15104 1 35.301500 5.431000 73.318500
15105 1 35.301500 8.146500 70.603000
15106 1 33.943750 6.788750 71.960750
15107 1 33.943750 9.504250 74.676250
15108 1 36.659250 6.788750 74.676250
15109 1 36.659250 9.504250 71.960750
15110 1 32.586000 5.431000 76.034000
15111 1 32.586000 8.146500 78.749500
15112 1 35.301500 5.431000 78.749500
15113 1 35.301500 8.146500 76.034000
15114 1 33.943750 6.788750 77.391750
15115 1 33.943750 9.504250 80.107250
15116 1 36.659250 6.788750 80.107250
15117 1 36.659250 9.504250 77.391750
15118 1 32.586000 5.431000 81.465000
15119 1 32.586000 8.146500 84.180500
15120 1 35.301500 5.431000 84.180500
15121 1 35.301500 8.146500 81.465000
15122 1 33.943750 6.788750 82.822750
15123 1 33.943750 9.504250 85.538250
15124 1 36.659250 6.788750 85.538250
15125 1 36.659250 9.504250 82.822750
15126 1 32.586000 5.431000 86.896000
15127 1 32.586000 8.146500 89.611500
15128 1 35.301500 5.431000 89.611500
15129 1 35.301500 8.146500 86.896000
15130 1 33.943750 6.788750 88.253750
15131 1 33.943750 9.504250 90.969250
15132 1 36.659250 6.788750 90.969250
15133 1 36.659250 9.504250 88.253750
15134 1 32.586000 5.431000 92.327000
15135 1 32.586000 8.146500 95.042500
15136 1 35.301500 5.431000 95.042500
15137 1 35.301500 8.146500 92.327000
15138 1 33.943750 6.788750 93.684750
15139 1 33.943750 9.504250 96.400250
15140 1 36.659250 6.788750 96.400250
15141 1 36.659250 9.504250 93.684750
15142 1 32.586000 5.431000 97.758000
15143 1 32.586000 8.146500 100.473500
15144 1 35.301500 5.431000 100.473500
15145 1 35.301500 8.146500 97.758000
15146 1 33.943750 6.788750 99.115750
15147 1 33.943750 9.504250 101.831250
15148 1 36.659250 6.788750 101.831250
15149 1 36.659250 9.504250 99.115750
15150 1 32.586000 5.431000 103.189000
15151 1 32.586000 8.146500 105.904500
15152 1 35.301500 5.431000 105.904500
15153 1 35.301500 8.146500 103.189000
15154 1 33.943750 6.788750 104.546750
15155 1 33.943750 9.504250 107.262250
15156 1 36.659250 6.788750 107.262250
15157 1 36.659250 9.504250 104.546750
15158 1 32.586000 5.431000 108.620000
15159 1 32.586000 8.146500 111.335500
15160 1 35.301500 5.431000 111.335500
15161 1 35.301500 8.146500 108.620000
15162 1 33.943750 6.788750 109.977750
15163 1 33.943750 9.504250 112.693250
15164 1 36.659250 6.788750 112.693250
15165 1 36.659250 9.504250 109.977750
15166 1 32.586000 5.431000 114.051000
15167 1 32.586000 8.146500 116.766500
15168 1 35.301500 5.431000 116.766500
15169 1 35.301500 8.146500 114.051000
15170 1 33.943750 6.788750 115.408750
15171 1 33.943750 9.504250 118.124250
15172 1 36.659250 6.788750 118.124250
15173 1 36.659250 9.504250 115.408750
15174 1 32.586000 5.431000 119.482000
15175 1 32.586000 8.146500 122.197500
15176 1 35.301500 5.431000 122.197500
15177 1 35.301500 8.146500 119.482000
15178 1 33.943750 6.788750 120.839750
15179 1 33.943750 9.504250 123.555250
15180 1 36.659250 6.788750 123.555250
15181 1 36.659250 9.504250 120.839750
15182 1 32.586000 5.431000 124.913000
15183 1 32.586000 8.146500 127.628500
15184 1 35.301500 5.431000 127.628500
15185 1 35.301500 8.146500 124.913000
15186 1 33.943750 6.788750 126.270750
15187 1 33.943750 9.504250 128.986250
15188 1 36.659250 6.788750 128.986250
15189 1 36.659250 9.504250 126.270750
15190 1 32.586000 5.431000 130.344000
15191 1 32.586000 8.146500 133.059500
15192 1 35.301500 5.431000 133.059500
15193 1 35.301500 8.146500 130.344000
15194 1 33.943750 6.788750 131.701750
15195 1 33.943750 9.504250 134.417250
15196 1 36.659250 6.788750 134.417250
15197 1 36.659250 9.504250 131.701750
15198 1 32.586000 5.431000 135.775000
15199 1 32.586000 8.146500 138.490500
15200 1 35.301500 5.431000 138.490500
15201 1 35.301500 8.146500 135.775000
15202 1 33.943750 6.788750 137.132750
15203 1 33.943750 9.504250 139.848250
15204 1 36.659250 6.788750 139.848250
15205 1 36.659250 9.504250 137.132750
15206 1 32.586000 5.431000 141.206000
15207 1 32.586000 8.146500 143.921500
15208 1 35.301500 5.431000 143.921500
15209 1 35.301500 8.146500 141.206000
15210 1 33.943750 6.788750 142.563750
15211 1 33.943750 9.504250 145.279250
15212 1 36.659250 6.788750 145.279250
15213 1 36.659250 9.504250 142.563750
15214 1 32.586000 5.431000 146.637000
15215 1 32.586000 8.146500 149.352500
15216 1 35.301500 5.431000 149.352500
15217 1 35.301500 8.146500 146.637000
15218 1 33.943750 6.788750 147.994750
15219 1 33.943750 9.504250 150.710250
15220 1 36.659250 6.788750 150.710250
15221 1 36.659250 9.504250 147.994750
15222 1 32.586000 5.431000 152.068000
15223 1 32.586000 8.146500 154.783500
15224 1 35.301500 5.431000 154.783500
15225 1 35.301500 8.146500 152.068000
15226 1 33.943750 6.788750 153.425750
15227 1 33.943750 9.504250 156.141250
15228 1 36.659250 6.788750 156.141250
15229 1 36.659250 9.504250 153.425750
15230 1 32.586000 5.431000 157.499000
15231 1 32.586000 8.146500 160.214500
15232 1 35.301500 5.431000 160.214500
15233 1 35.301500 8.146500 157.499000
15234 1 33.943750 6.788750 158.856750
15235 1 33.943750 9.504250 161.572250
15236 1 36.659250 6.788750 161.572250
15237 1 36.659250 9.504250 158.856750
15238 1 32.586000 5.431000 162.930000
15239 1 32.586000 8.146500 165.645500
15240 1 35.301500 5.431000 165.645500
15241 1 35.301500 8.146500 162.930000
15242 1 33.943750 6.788750 164.287750
15243 1 33.943750 9.504250 167.003250
15244 1 36.659250 6.788750 167.003250
15245 1 36.659250 9.504250 164.287750
15246 1 32.586000 5.431000 168.361000
15247 1 32.586000 8.146500 171.076500
15248 1 35.301500 5.431000 171.076500
15249 1 35.301500 8.146500 168.361000
15250 1 33.943750 6.788750 169.718750
15251 1 33.943750 9.504250 172.434250
15252 1 36.659250 6.788750 172.434250
15253 1 36.659250 9.504250 169.718750
15254 1 32.586000 5.431000 173.792000
15255 1 32.586000 8.146500 176.507500
15256 1 35.301500 5.431000 176.507500
15257 1 35.301500 8.146500 173.792000
15258 1 33.943750 6.788750 175.149750
15259 1 33.943750 9.504250 177.865250
15260 1 36.659250 6.788750 177.865250
15261 1 36.659250 9.504250 175.149750
15262 1 32.586000 5.431000 179.223000
15263 1 32.586000 8.146500 181.938500
15264 1 35.301500 5.431000 181.938500
15265 1 35.301500 8.146500 179.223000
15266 1 33.943750 6.788750 180.580750
15267 1 33.943750 9.504250 183.296250
15268 1 36.659250 6.788750 183.296250
15269 1 36.659250 9.504250 180.580750
15270 1 32.586000 5.431000 184.654000
15271 1 32.586000 8.146500 187.369500
15272 1 35.301500 5.431000 187.369500
15273 1 35.301500 8.146500 184.654000
15274 1 33.943750 6.788750 186.011750
15275 1 33.943750 9.504250 188.727250
15276 1 36.659250 6.788750 188.727250
15277 1 36.659250 9.504250 186.011750
15278 1 32.586000 5.431000 190.085000
15279 1 32.586000 8.146500 192.800500
15280 1 35.301500 5.431000 192.800500
15281 1 35.301500 8.146500 190.085000
15282 1 33.943750 6.788750 191.442750
15283 1 33.943750 9.504250 194.158250
15284 1 36.659250 6.788750 194.158250
15285 1 36.659250 9.504250 191.442750
15286 1 32.586000 5.431000 195.516000
15287 1 32.586000 8.146500 198.231500
15288 1 35.301500 5.431000 198.231500
15289 1 35.301500 8.146500 195.516000
15290 1 33.943750 6.788750 196.873750
15291 1 33.943750 9.504250 199.589250
15292 1 36.659250 6.788750 199.589250
15293 1 36.659250 9.504250 196.873750
15294 1 32.586000 5.431000 200.947000
15295 1 32.586000 8.146500 203.662500
15296 1 35.301500 5.431000 203.662500
15297 1 35.301500 8.146500 200.947000
15298 1 33.943750 6.788750 202.304750
15299 1 33.943750 9.504250 205.020250
15300 1 36.659250 6.788750 205.020250
15301 1 36.659250 9.504250 202.304750
15302 1 32.586000 5.431000 206.378000
15303 1 32.586000 8.146500 209.093500
15304 1 35.301500 5.431000 209.093500
15305 1 35.301500 8.146500 206.378000
15306 1 33.943750 6.788750 207.735750
15307 1 33.943750 9.504250 210.451250
15308 1 36.659250 6.788750 210.451250
15309 1 36.659250 9.504250 207.735750
15310 1 32.586000 5.431000 211.809000
15311 1 32.586000 8.146500 214.524500
15312 1 35.301500 5.431000 214.524500
15313 1 35.301500 8.146500 211.809000
15314 1 33.943750 6.788750 213.166750
15315 1 33.943750 9.504250 215.882250
15316 1 36.659250 6.788750 215.882250
15317 1 36.659250 9.504250 213.166750
15318 1 32.586000 5.431000 217.240000
15319 1 32.586000 8.146500 219.955500
15320 1 35.301500 5.431000 219.955500
15321 1 35.301500 8.146500 217.240000
15322 1 33.943750 6.788750 218.597750
15323 1 33.943750 9.504250 221.313250
15324 1 36.659250 6.788750 221.313250
15325 1 36.659250 9.504250 218.597750
15326 1 32.586000 5.431000 222.671000
15327 1 32.586000 8.146500 225.386500
15328 1 35.301500 5.431000 225.386500
15329 1 35.301500 8.146500 222.671000
15330 1 33.943750 6.788750 224.028750
15331 1 33.943750 9.504250 226.744250
15332 1 36.659250 6.788750 226.744250
15333 1 36.659250 9.504250 224.028750
15334 1 32.586000 5.431000 228.102000
15335 1 32.586000 8.146500 230.817500
15336 1 35.301500 5.431000 230.817500
15337 1 35.301500 8.146500 228.102000
15338 1 33.943750 6.788750 229.459750
15339 1 33.943750 9.504250 232.175250
15340 1 36.659250 6.788750 232.175250
15341 1 36.659250 9.504250 229.459750
15342 1 32.586000 5.431000 233.533000
15343 1 32.586000 8.146500 236.248500
15344 1 35.301500 5.431000 236.248500
15345 1 35.301500 8.146500 233.533000
15346 1 33.943750 6.788750 234.890750
15347 1 33.943750 9.504250 237.606250
15348 1 36.659250 6.788750 237.606250
15349 1 36.659250 9.504250 234.890750
15350 1 32.586000 5.431000 238.964000
15351 1 32.586000 8.146500 241.679500
15352 1 35.301500 5.431000 241.679500
15353 1 35.301500 8.146500 238.964000
15354 1 33.943750 6.788750 240.321750
15355 1 33.943750 9.504250 243.037250
15356 1 36.659250 6.788750 243.037250
15357 1 36.659250 9.504250 240.321750
15358 1 32.586000 5.431000 244.395000
15359 1 32.586000 8.146500 247.110500
15360 1 35.301500 5.431000 247.110500
15361 1 35.301500 8.146500 244.395000
15362 1 33.943750 6.788750 245.752750
15363 1 33.943750 9.504250 248.468250
15364 1 36.659250 6.788750 248.468250
15365 1 36.659250 9.504250 245.752750
15366 1 32.586000 5.431000 249.826000
15367 1 32.586000 8.146500 252.541500
15368 1 35.301500 5.431000 252.541500
15369 1 35.301500 8.146500 249.826000
15370 1 33.943750 6.788750 251.183750
15371 1 33.943750 9.504250 253.899250
15372 1 36.659250 6.788750 253.899250
15373 1 36.659250 9.504250 251.183750
15374 1 32.586000 5.431000 255.257000
15375 1 32.586000 8.146500 257.972500
15376 1 35.301500 5.431000 257.972500
15377 1 35.301500 8.146500 255.257000
15378 1 33.943750 6.788750 256.614750
15379 1 33.943750 9.504250 259.330250
15380 1 36.659250 6.788750 259.330250
15381 1 36.659250 9.504250 256.614750
15382 1 32.586000 10.862000 0.000000
15383 1 32.586000 13.577500 2.715500
15384 1 35.301500 10.862000 2.715500
15385 1 35.301500 13.577500 0.000000
15386 1 33.943750 12.219750 1.357750
15387 1 33.943750 14.935250 4.073250
15388 1 36.659250 12.219750 4.073250
15389 1 36.659250 14.935250 1.357750
15390 1 32.586000 10.862000 5.431000
15391 1 32.586000 13.577500 8.146500
15392 1 35.301500 10.862000 8.146500
15393 1 35.301500 13.577500 5.431000
15394 1 33.943750 12.219750 6.788750
15395 1 33.943750 14.935250 9.504250
15396 1 36.659250 12.219750 9.504250
15397 1 36.659250 14.935250 6.788750
15398 1 32.586000 10.862000 10.862000
15399 1 32.586000 13.577500 13.577500
15400 1 35.301500 10.862000 13.577500
15401 1 35.301500 13.577500 10.862000
15402 1 33.943750 12.219750 12.219750
15403 1 33.943750 14.935250 14.935250
15404 1 36.659250 12.219750 14.935250
15405 1 36.659250 14.935250 12.219750
15406 1 32.586000 10.862000 16.293000
15407 1 32.586000 13.577500 19.008500
15408 1 35.301500 10.862000 19.008500
15409 1 35.301500 13.577500 16.293000
15410 1 33.943750 12.219750 17.650750
15411 1 33.943750 14.935250 20.366250
15412 1 36.659250 12.219750 20.366250
15413 1 36.659250 14.935250 17.650750
15414 1 32.586000 10.862000 21.724000
15415 1 32.586000 13.577500 24.439500
15416 1 35.301500 10.862000 24.439500
15417 1 35.301500 13.577500 21.724000
15418 1 33.943750 12.219750 23.081750
15419 1 33.943750 14.935250 25.797250
15420 1 36.659250 12.219750 25.797250
15421 1 36.659250 14.935250 23.081750
15422 1 32.586000 10.862000 27.155000
15423 1 32.586000 13.577500 29.870500
15424 1 35.301500 10.862000 29.870500
15425 1 35.301500 13.577500 27.155000
15426 1 33.943750 12.219750 28.512750
15427 1 33.943750 14.935250 31.228250
15428 1 36.659250 12.219750 31.228250
15429 1 36.659250 14.935250 28.512750
15430 1 32.586000 10.862000 32.586000
15431 1 32.586000 13.577500 35.301500
15432 1 35.301500 10.862000 35.301500
15433 1 35.301500 13.577500 32.586000
15434 1 33.943750 12.219750 33.943750
15435 1 33.943750 14.935250 36.659250
15436 1 36.659250 12.219750 36.659250
15437 1 36.659250 14.935250 33.943750
15438 1 32.586000 10.862000 38.017000
15439 1 32.586000 13.577500 40.732500
15440 1 35.301500 10.862000 40.732500
15441 1 35.301500 13.577500 38.017000
15442 1 33.943750 12.219750 39.374750
15443 1 33.943750 14.935250 42.090250
15444 1 36.659250 12.219750 42.090250
15445 1 36.659250 14.935250 39.374750
15446 1 32.586000 10.862000 43.448000
15447 1 32.586000 13.577500 46.163500
15448 1 35.301500 10.862000 46.163500
15449 1 35.301500 13.577500 43.448000
15450 1 33.943750 12.219750 44.805750
15451 1 33.943750 14.935250 47.521250
15452 1 36.659250 12.219750 47.521250
15453 1 36.659250 14.935250 44.805750
15454 1 32.586000 10.862000 48.879000
15455 1 32.586000 13.577500 51.594500
15456 1 35.301500 10.862000 51.594500
15457 1 35.301500 13.577500 48.879000
15458 1 33.943750 12.219750 50.236750
15459 1 33.943750 14.935250 52.952250
15460 1 36.659250 12.219750 52.952250
15461 1 36.659250 14.935250 50.236750
15462 1 32.586000 10.862000 54.310000
15463 1 32.586000 13.577500 57.025500
15464 1 35.301500 10.862000 57.025500
15465 1 35.301500 13.577500 54.310000
15466 1 33.943750 12.219750 55.667750
15467 1 33.943750 14.935250 58.383250
15468 1 36.659250 12.219750 58.383250
15469 1 36.659250 14.935250 55.667750
15470 1 32.586000 10.862000 59.741000
15471 1 32.586000 13.577500 62.456500
15472 1 35.301500 10.862000 62.456500
15473 1 35.301500 13.577500 59.741000
15474 1 33.943750 12.219750 61.098750
15475 1 33.943750 14.935250 63.814250
15476 1 36.659250 12.219750 63.814250
15477 1 36.659250 14.935250 61.098750
15478 1 32.586000 10.862000 65.172000
15479 1 32.586000 13.577500 67.887500
15480 1 35.301500 10.862000 67.887500
15481 1 35.301500 13.577500 65.172000
15482 1 33.943750 12.219750 66.529750
15483 1 33.943750 14.935250 69.245250
15484 1 36.659250 12.219750 69.245250
15485 1 36.659250 14.935250 66.529750
15486 1 32.586000 10.862000 70.603000
15487 1 32.586000 13.577500 73.318500
15488 1 35.301500 10.862000 73.318500
15489 1 35.301500 13.577500 70.603000
15490 1 33.943750 12.219750 71.960750
15491 1 33.943750 14.935250 74.676250
15492 1 36.659250 12.219750 74.676250
15493 1 36.659250 14.935250 71.960750
15494 1 32.586000 10.862000 76.034000
15495 1 32.586000 13.577500 78.749500
15496 1 35.301500 10.862000 78.749500
15497 1 35.301500 13.577500 76.034000
15498 1 33.943750 12.219750 77.391750
15499 1 33.943750 14.935250 80.107250
15500 1 36.659250 12.219750 80.107250
15501 1 36.659250 14.935250 77.391750
15502 1 32.586000 10.862000 81.465000
15503 1 32.586000 13.577500 84.180500
15504 1 35.301500 10.862000 84.180500
15505 1 35.301500 13.577500 81.465000
15506 1 33.943750 12.219750 82.822750
15507 1 33.943750 14.935250 85.538250
15508 1 36.659250 12.219750 85.538250
15509 1 36.659250 14.935250 82.822750
15510 1 32.586000 10.862000 86.896000
15511 1 32.586000 13.577500 89.611500
15512 1 35.301500 10.862000 89.611500
15513 1 35.301500 13.577500 86.896000
15514 1 33.943750 12.219750 88.253750
15515 1 33.943750 14.935250 90.969250
15516 1 36.659250 12.219750 90.969250
15517 1 36.659250 14.935250 88.253750
15518 1 32.586000 10.862000 92.327000
15519 1 32.586000 13.577500 95.042500
15520 1 35.301500 10.862000 95.042500
15521 1 35.301500 13.577500 92.327000
15522 1 33.943750 12.219750 93.684750
15523 1 33.943750 14.935250 96.400250
15524 1 36.659250 12.219750 96.400250
15525 1 36.659250 14.935250 93.684750
15526 1 32.586000 10.862000 97.758000
15527 1 32.586000 13.577500 100.473500
15528 1 35.301500 10.862000 100.473500
15529 1 35.301500 13.577500 97.758000
15530 1 33.943750 12.219750 99.115750
15531 1 33.943750 14.935250 101.831250
15532 1 36.659250 12.219750 101.831250
15533 1 36.659250 14.935250 99.115750
15534 1 32.586000 10.862000 103.189000
15535 1 32.586000 13.577500 105.904500
15536 1 35.301500 10.862000 105.904500
15537 1 35.301500 13.577500 103.189000
15538 1 33.943750 12.219750 104.546750
15539 1 33.943750 14.935250 107.262250
15540 1 36.659250 12.219750 107.262250
15541 1 36.659250 14.935250 104.546750
15542 1 32.586000 10.862000 108.620000
15543 1 32.586000 13.577500 111.335500
15544 1 35.301500 10.862000 111.335500
15545 1 35.301500 13.577500 108.620000
15546 1 33.943750 12.219750 109.977750
15547 1 33.943750 14.935250 112.693250
15548 1 36.659250 12.219750 112.693250
15549 1 36.659250 14.935250 109.977750
15550 1 32.586000 10.862000 114.051000
15551 1 32.586000 13.577500 116.766500
15552 1 35.301500 10.862000 116.766500
15553 1 35.301500 13.577500 114.051000
15554 1 33.943750 12.219750 115.408750
15555 1 33.943750 14.935250 118.124250
15556 1 36.659250 12.219750 118.124250
15557 1 36.659250 14.935250 115.408750
15558 1 32.586000 10.862000 119.482000
15559 1 32.586000 13.577500 122.197500
15560 1 35.301500 10.862000 122.197500
15561 1 35.301500 13.577500 119.482000
15562 1 33.943750 12.219750 120.839750
15563 1 33.943750 14.935250 123.555250
15564 1 36.659250 12.219750 123.555250
15565 1 36.659250 14.935250 120.839750
15566 1 32.586000 10.862000 124.913000
15567 1 32.586000 13.577500 127.628500
15568 1 35.301500 10.862000 127.628500
15569 1 35.301500 13.577500 124.913000
15570 1 33.943750 12.219750 126.270750
15571 1 33.943750 14.935250 128.986250
15572 1 36.659250 12.219750 128.986250
15573 1 36.659250 14.935250 126.270750
15574 1 32.586000 10.862000 130.344000
15575 1 32.586000 13.577500 133.059500
15576 1 35.301500 10.862000 133.059500
15577 1 35.301500 13.577500 130.344000
15578 1 33.943750 12.219750 131.701750
15579 1 33.943750 14.935250 134.417250
15580 1 36.659250 12.219750 134.417250
15581 1 36.659250 14.935250 131.701750
15582 1 32.586000 10.862000 135.775000
15583 1 32.586000 13.577500 138.490500
15584 1 35.301500 10.862000 138.490500
15585 1 35.301500 13.577500 135.775000
15586 1 33.943750 12.219750 137.132750
15587 1 33.943750 14.935250 139.848250
15588 1 36.659250 12.219750 139.848250
15589 1 36.659250 14.935250 137.132750
15590 1 32.586000 10.862000 141.206000
15591 1 32.586000 13.577500 143.921500
15592 1 35.301500 10.862000 143.921500
15593 1 35.301500 13.577500 141.206000
15594 1 33.943750 12.219750 142.563750
15595 1 33.943750 14.935250 145.279250
15596 1 36.659250 12.219750 145.279250
15597 1 36.659250 14.935250 142.563750
15598 1 32.586000 10.862000 146.637000
15599 1 32.586000 13.577500 149.352500
15600 1 35.301500 10.862000 149.352500
15601 1 35.301500 13.577500 146.637000
15602 1 33.943750 12.219750 147.994750
15603 1 33.943750 14.935250 150.710250
15604 1 36.659250 12.219750 150.710250
15605 1 36.659250 14.935250 147.994750
15606 1 32.586000 10.862000 152.068000
15607 1 32.586000 13.577500 154.783500
15608 1 35.301500 10.862000 154.783500
15609 1 35.301500 13.577500 152.068000
15610 1 33.943750 12.219750 153.425750
15611 1 33.943750 14.935250 156.141250
15612 1 36.659250 12.219750 156.141250
15613 1 36.659250 14.935250 153.425750
15614 1 32.586000 10.862000 157.499000
15615 1 32.586000 13.577500 160.214500
15616 1 35.301500 10.862000 160.214500
15617 1 35.301500 13.577500 157.499000
15618 1 33.943750 12.219750 158.856750
15619 1 33.943750 14.935250 161.572250
15620 1 36.659250 12.219750 161.572250
15621 1 36.659250 14.935250 158.856750
15622 1 32.586000 10.862000 162.930000
15623 1 32.586000 13.577500 165.645500
15624 1 35.301500 10.862000 165.645500
15625 1 35.301500 13.577500 162.930000
15626 1 33.943750 12.219750 164.287750
15627 1 33.943750 14.935250 167.003250
15628 1 36.659250 12.219750 167.003250
15629 1 36.659250 14.935250 164.287750
15630 1 32.586000 10.862000 168.361000
15631 1 32.586000 13.577500 171.076500
15632 1 35.301500 10.862000 171.076500
15633 1 35.301500 13.577500 168.361000
15634 1 33.943750 12.219750 169.718750
15635 1 33.943750 14.935250 172.434250
15636 1 36.659250 12.219750 172.434250
15637 1 36.659250 14.935250 169.718750
15638 1 32.586000 10.862000 173.792000
15639 1 32.586000 13.577500 176.507500
15640 1 35.301500 10.862000 176.507500
15641 1 35.301500 13.577500 173.792000
15642 1 33.943750 12.219750 175.149750
15643 1 33.943750 14.935250 177.865250
15644 1 36.659250 12.219750 177.865250
15645 1 36.659250 14.935250 175.149750
15646 1 32.586000 10.862000 179.223000
15647 1 32.586000 13.577500 181.938500
15648 1 35.301500 10.862000 181.938500
15649 1 35.301500 13.577500 179.223000
15650 1 33.943750 12.219750 180.580750
15651 1 33.943750 14.935250 183.296250
15652 1 36.659250 12.219750 183.296250
15653 1 36.659250 14.935250 180.580750
15654 1 32.586000 10.862000 184.654000
15655 1 32.586000 13.577500 187.369500
15656 1 35.301500 10.862000 187.369500
15657 1 35.301500 13.577500 184.654000
15658 1 33.943750 12.219750 186.011750
15659 1 33.943750 14.935250 188.727250
15660 1 36.659250 12.219750 188.727250
15661 1 36.659250 14.935250 186.011750
15662 1 32.586000 10.862000 190.085000
15663 1 32.586000 13.577500 192.800500
15664 1 35.301500 10.862000 192.800500
15665 1 35.301500 13.577500 190.085000
15666 1 33.943750 12.219750 191.442750
15667 1 33.943750 14.935250 194.158250
15668 1 36.659250 12.219750 194.158250
15669 1 36.659250 14.935250 191.442750
15670 1 32.586000 10.862000 195.516000
15671 1 32.586000 13.577500 198.231500
15672 1 35.301500 10.862000 198.231500
15673 1 35.301500 13.577500 195.516000
15674 1 33.943750 12.219750 196.873750
15675 1 33.943750 14.935250 199.589250
15676 1 36.659250 12.219750 199.589250
15677 1 36.659250 14.935250 196.873750
15678 1 32.586000 10.862000 200.947000
15679 1 32.586000 13.577500 203.662500
15680 1 35.301500 10.862000 203.662500
15681 1 35.301500 13.577500 200.947000
15682 1 33.943750 12.219750 202.304750
15683 1 33.943750 14.935250 205.020250
15684 1 36.659250 12.219750 205.020250
15685 1 36.659250 14.935250 202.304750
15686 1 32.586000 10.862000 206.378000
15687 1 32.586000 13.577500 209.093500
15688 1 35.301500 10.862000 209.093500
15689 1 35.301500 13.577500 206.378000
15690 1 33.943750 12.219750 207.735750
15691 1 33.943750 14.935250 210.451250
15692 1 36.659250 12.219750 210.451250
15693 1 36.659250 14.935250 207.735750
15694 1 32.586000 10.862000 211.809000
15695 1 32.586000 13.577500 214.524500
15696 1 35.301500 10.862000 214.524500
15697 1 35.301500 13.577500 211.809000
15698 1 33.943750 12.219750 213.166750
15699 1 33.943750 14.935250 215.882250
15700 1 36.659250 12.219750 215.882250
15701 1 36.659250 14.935250 213.166750
15702 1 32.586000 10.862000 217.240000
15703 1 32.586000 13.577500 219.955500
15704 1 35.301500 10.862000 219.955500
15705 1 35.301500 13.577500 217.240000
15706 1 33.943750 12.219750 218.597750
15707 1 33.943750 14.935250 221.313250
15708 1 36.659250 12.219750 221.313250
15709 1 36.659250 14.935250 218.597750
15710 1 32.586000 10.862000 222.671000
15711 1 32.586000 13.577500 225.386500
15712 1 35.301500 10.862000 225.386500
15713 1 35.301500 13.577500 222.671000
15714 1 33.943750 12.219750 224.028750
15715 1 33.943750 14.935250 226.744250
15716 1 36.659250 12.219750 226.744250
15717 1 36.659250 14.935250 224.028750
15718 1 32.586000 10.862000 228.102000
15719 1 32.586000 13.577500 230.817500
15720 1 35.301500 10.862000 230.817500
15721 1 35.301500 13.577500 228.102000
15722 1 33.943750 12.219750 229.459750
15723 1 33.943750 14.935250 232.175250
15724 1 36.659250 12.219750 232.175250
15725 1 36.659250 14.935250 229.459750
15726 1 32.586000 10.862000 233.533000
15727 1 32.586000 13.577500 236.248500
15728 1 35.301500 10.862000 236.248500
15729 1 35.301500 13.577500 233.533000
15730 1 33.943750 12.219750 234.890750
15731 1 33.943750 14.935250 237.606250
15732 1 36.659250 12.219750 237.606250
15733 1 36.659250 14.935250 234.890750
15734 1 32.586000 10.862000 238.964000
15735 1 32.586000 13.577500 241.679500
15736 1 35.301500 10.862000 241.679500
15737 1 35.301500 13.577500 238.964000
15738 1 33.943750 12.219750 240.321750
15739 1 33.943750 14.935250 243.037250
15740 1 36.659250 12.219750 243.037250
15741 1 36.659250 14.935250 240.321750
15742 1 32.586000 10.862000 244.395000
15743 1 32.586000 13.577500 247.110500
15744 1 35.301500 10.862000 247.110500
15745 1 35.301500 13.577500 244.395000
15746 1 33.943750 12.219750 245.752750
15747 1 33.943750 14.935250 248.468250
15748 1 36.659250 12.219750 248.468250
15749 1 36.659250 14.935250 245.752750
15750 1 32.586000 10.862000 249.826000
15751 1 32.586000 13.577500 252.541500
15752 1 35.301500 10.862000 252.541500
15753 1 35.301500 13.577500 249.826000
15754 1 33.943750 12.219750 251.183750
15755 1 33.943750 14.935250 253.899250
15756 1 36.659250 12.219750 253.899250
15757 1 36.659250 14.935250 251.183750
15758 1 32.586000 10.862000 255.257000
15759 1 32.586000 13.577500 257.972500
15760 1 35.301500 10.862000 257.972500
15761 1 35.301500 13.577500 255.257000
15762 1 33.943750 12.219750 256.614750
15763 1 33.943750 14.935250 259.330250
15764 1 36.659250 12.219750 259.330250
15765 1 36.659250 14.935250 256.614750
15766 1 32.586000 16.293000 0.000000
15767 1 32.586000 19.008500 2.715500
15768 1 35.301500 16.293000 2.715500
15769 1 35.301500 19.008500 0.000000
15770 1 33.943750 17.650750 1.357750
15771 1 33.943750 20.366250 4.073250
15772 1 36.659250 17.650750 4.073250
15773 1 36.659250 20.366250 1.357750
15774 1 32.586000 16.293000 5.431000
15775 1 32.586000 19.008500 8.146500
15776 1 35.301500 16.293000 8.146500
15777 1 35.301500 19.008500 5.431000
15778 1 33.943750 17.650750 6.788750
15779 1 33.943750 20.366250 9.504250
15780 1 36.659250 17.650750 9.504250
15781 1 36.659250 20.366250 6.788750
15782 1 32.586000 16.293000 10.862000
15783 1 32.586000 19.008500 13.577500
15784 1 35.301500 16.293000 13.577500
15785 1 35.301500 19.008500 10.862000
15786 1 33.943750 17.650750 12.219750
15787 1 33.943750 20.366250 14.935250
15788 1 36.659250 17.650750 14.935250
15789 1 36.659250 20.366250 12.219750
15790 1 32.586000 16.293000 16.293000
15791 1 32.586000 19.008500 19.008500
15792 1 35.301500 16.293000 19.008500
15793 1 35.301500 19.008500 16.293000
15794 1 33.943750 17.650750 17.650750
15795 1 33.943750 20.366250 20.366250
15796 1 36.659250 17.650750 20.366250
15797 1 36.659250 20.366250 17.650750
15798 1 32.586000 19.008500 46.163500
15799 1 35.301500 16.293000 46.163500
15800 1 33.943750 17.650750 44.805750
15801 1 33.943750 20.366250 47.521250
15802 1 36.659250 17.650750 47.521250
15803 1 36.659250 20.366250 44.805750
15804 1 32.586000 16.293000 48.879000
15805 1 32.586000 19.008500 51.594500
15806 1 35.301500 16.293000 51.594500
15807 1 35.301500 19.008500 48.879000
15808 1 33.943750 17.650750 50.236750
15809 1 33.943750 20.366250 52.952250
15810 1 36.659250 17.650750 52.952250
15811 1 36.659250 20.366250 50.236750
15812 1 32.586000 16.293000 54.310000
15813 1 32.586000 19.008500 57.025500
15814 1 35.301500 16.293000 57.025500
15815 1 35.301500 19.008500 54.310000
15816 1 33.943750 17.650750 55.667750
15817 1 33.943750 20.366250 58.383250
15818 1 36.659250 17.650750 58.383250
15819 1 36.659250 20.366250 55.667750
15820 1 32.586000 16.293000 59.741000
15821 1 32.586000 19.008500 62.456500
15822 1 35.301500 16.293000 62.456500
15823 1 35.301500 19.008500 59.741000
15824 1 33.943750 17.650750 61.098750
15825 1 33.943750 20.366250 63.814250
15826 1 36.659250 17.650750 63.814250
15827 1 36.659250 20.366250 61.098750
15828 1 32.586000 19.008500 89.611500
15829 1 35.301500 16.293000 89.611500
15830 1 33.943750 17.650750 88.253750
15831 1 33.943750 20.366250 90.969250
15832 1 36.659250 17.650750 90.969250
15833 1 36.659250 20.366250 88.253750
15834 1 32.586000 16.293000 92.327000
15835 1 32.586000 19.008500 95.042500
15836 1 35.301500 16.293000 95.042500
15837 1 35.301500 19.008500 92.327000
15838 1 33.943750 17.650750 93.684750
15839 1 33.943750 20.366250 96.400250
15840 1 36.659250 17.650750 96.400250
15841 1 36.659250 20.366250 93.684750
15842 1 32.586000 16.293000 97.758000
15843 1 32.586000 19.008500 100.473500
15844 1 35.301500 16.293000 100.473500
15845 1 35.301500 19.008500 97.758000
15846 1 33.943750 17.650750 99.115750
15847 1 33.943750 20.366250 101.831250
15848 1 36.659250 17.650750 101.831250
15849 1 36.659250 20.366250 99.115750
15850 1 32.586000 16.293000 103.189000
15851 1 32.586000 19.008500 105.904500
15852 1 35.301500 16.293000 105.904500
15853 1 35.301500 19.008500 103.189000
15854 1 33.943750 17.650750 104.546750
15855 1 33.943750 20.366250 107.262250
15856 1 36.659250 17.650750 107.262250
15857 1 36.659250 20.366250 104.546750
15858 1 32.586000 19.008500 133.059500
15859 1 35.301500 16.293000 133.059500
15860 1 33.943750 17.650750 131.701750
15861 1 33.943750 20.366250 134.417250
15862 1 36.659250 17.650750 134.417250
15863 1 36.659250 20.366250 131.701750
15864 1 32.586000 16.293000 135.775000
15865 1 32.586000 19.008500 138.490500
15866 1 35.301500 16.293000 138.490500
15867 1 35.301500 19.008500 135.775000
15868 1 33.943750 17.650750 137.132750
15869 1 33.943750 20.366250 139.848250
15870 1 36.659250 17.650750 139.848250
15871 1 36.659250 20.366250 137.132750
15872 1 32.586000 16.293000 141.206000
15873 1 32.586000 19.008500 143.921500
15874 1 35.301500 16.293000 143.921500
15875 1 35.301500 19.008500 141.206000
15876 1 33.943750 17.650750 142.563750
15877 1 33.943750 20.366250 145.279250
15878 1 36.659250 17.650750 145.279250
15879 1 36.659250 20.366250 142.563750
15880 1 32.586000 16.293000 146.637000
15881 1 32.586000 19.008500 149.352500
15882 1 35.301500 16.293000 149.352500
15883 1 35.301500 19.008500 146.637000
15884 1 33.943750 17.650750 147.994750
15885 1 33.943750 20.366250 150.710250
15886 1 36.659250 17.650750 150.710250
15887 1 36.659250 20.366250 147.994750
15888 1 32.586000 19.008500 176.507500
15889 1 35.301500 16.293000 176.507500
15890 1 33.943750 17.650750 175.149750
15891 1 33.943750 20.366250 177.865250
15892 1 36.659250 17.650750 177.865250
15893 1 36.659250 20.366250 175.149750
15894 1 32.586000 16.293000 179.223000
15895 1 32.586000 19.008500 181.938500
15896 1 35.301500 16.293000 181.938500
15897 1 35.301500 19.008500 179.223000
15898 1 33.943750 17.650750 180.580750
15899 1 33.943750 20.366250 183.296250
15900 1 36.659250 17.650750 183.296250
15901 1 36.659250 20.366250 180.580750
15902 1 32.586000 16.293000 184.654000
15903 1 32.586000 19.008500 187.369500
15904 1 35.301500 16.293000 187.369500
15905 1 35.301500 19.008500 184.654000
15906 1 33.943750 17.650750 186.011750
15907 1 33.943750 20.366250 188.727250
15908 1 36.659250 17.650750 188.727250
15909 1 36.659250 20.366250 186.011750
15910 1 32.586000 16.293000 190.085000
15911 1 32.586000 19.008500 192.800500
15912 1 35.301500 16.293000 192.800500
15913 1 35.301500 19.008500 190.085000
15914 1 33.943750 17.650750 191.442750
15915 1 33.943750 20.366250 194.158250
15916 1 36.659250 17.650750 194.158250
15917 1 36.659250 20.366250 191.442750
15918 1 32.586000 19.008500 219.955500
15919 1 35.301500 16.293000 219.955500
15920 1 33.943750 17.650750 218.597750
15921 1 33.943750 20.366250 221.313250
15922 1 36.659250 17.650750 221.313250
15923 1 36.659250 20.366250 218.597750
15924 1 32.586000 16.293000 222.671000
15925 1 32.586000 19.008500 225.386500
15926 1 35.301500 16.293000 225.386500
15927 1 35.301500 19.008500 222.671000
15928 1 33.943750 17.650750 224.028750
15929 1 33.943750 20.366250 226.744250
15930 1 36.659250 17.650750 226.744250
15931 1 36.659250 20.366250 224.028750
15932 1 32.586000 16.293000 228.102000
15933 1 32.586000 19.008500 230.817500
15934 1 35.301500 16.293000 230.817500
15935 1 35.301500 19.008500 228.102000
15936 1 33.943750 17.650750 229.459750
15937 1 33.943750 20.366250 232.175250
15938 1 36.659250 17.650750 232.175250
15939 1 36.659250 20.366250 229.459750
15940 1 32.586000 16.293000 233.533000
15941 1 32.586000 19.008500 236.248500
15942 1 35.301500 16.293000 236.248500
15943 1 35.301500 19.008500 233.533000
15944 1 33.943750 17.650750 234.890750
15945 1 33.943750 20.366250 237.606250
15946 1 36.659250 17.650750 237.606250
15947 1 36.659250 20.366250 234.890750
15948 1 32.586000 21.724000 0.000000
15949 1 32.586000 24.439500 2.715500
15950 1 35.301500 21.724000 2.715500
15951 1 35.301500 24.439500 0.000000
15952 1 33.943750 23.081750 1.357750
15953 1 33.943750 25.797250 4.073250
15954 1 36.659250 23.081750 4.073250
15955 1 36.659250 25.797250 1.357750
15956 1 32.586000 21.724000 5.431000
15957 1 32.586000 24.439500 8.146500
15958 1 35.301500 21.724000 8.146500
15959 1 35.301500 24.439500 5.431000
15960 1 33.943750 23.081750 6.788750
15961 1 33.943750 25.797250 9.504250
15962 1 36.659250 23.081750 9.504250
15963 1 36.659250 25.797250 6.788750
15964 1 32.586000 21.724000 10.862000
15965 1 32.586000 24.439500 13.577500
15966 1 35.301500 21.724000 13.577500
15967 1 35.301500 24.439500 10.862000
15968 1 33.943750 23.081750 12.219750
15969 1 33.943750 25.797250 14.935250
15970 1 36.659250 23.081750 14.935250
15971 1 36.659250 25.797250 12.219750
15972 1 32.586000 21.724000 16.293000
15973 1 32.586000 24.439500 19.008500
15974 1 35.301500 21.724000 19.008500
15975 1 35.301500 24.439500 16.293000
15976 1 33.943750 23.081750 17.650750
15977 1 33.943750 25.797250 20.366250
15978 1 36.659250 23.081750 20.366250
15979 1 36.659250 25.797250 17.650750
15980 1 32.586000 24.439500 46.163500
15981 1 35.301500 21.724000 46.163500
15982 1 33.943750 23.081750 44.805750
15983 1 33.943750 25.797250 47.521250
15984 1 36.659250 23.081750 47.521250
15985 1 36.659250 25.797250 44.805750
15986 1 32.586000 21.724000 48.879000
15987 1 32.586000 24.439500 51.594500
15988 1 35.301500 21.724000 51.594500
15989 1 35.301500 24.439500 48.879000
15990 1 33.943750 23.081750 50.236750
15991 1 33.943750 25.797250 52.952250
15992 1 36.659250 23.081750 52.952250
15993 1 36.659250 25.797250 50.236750
15994 1 32.586000 21.724000 54.310000
15995 1 32.586000 24.439500 57.025500
15996 1 35.301500 21.724000 57.025500
15997 1 35.301500 24.439500 54.310000
15998 1 33.943750 23.081750 55.667750
15999 1 33.943750 25.797250 58.383250
16000 1 36.659250 23.081750 58.383250
16001 1 36.659250 25.797250 55.667750
16002 1 32.586000 21.724000 59.741000
16003 1 32.586000 24.439500 62.456500
16004 1 35.301500 21.724000 62.456500
16005 1 35.301500 24.439500 59.741000
16006 1 33.943750 23.081750 61.098750
16007 1 33.943750 25.797250 63.814250
16008 1 36.659250 23.081750 63.814250
16009 1 36.659250 25.797250 61.098750
16010 1 32.586000 24.439500 89.611500
16011 1 35.301500 21.724000 89.611500
16012 1 33.943750 23.081750 88.253750
16013 1 33.943750 25.797250 90.969250
16014 1 36.659250 23.081750 90.969250
16015 1 36.659250 25.797250 88.253750
16016 1 32.586000 21.724000 92.327000
16017 1 32.586000 24.439500 95.042500
16018 1 35.301500 21.724000 95.042500
16019 1 35.301500 24.439500 92.327000
16020 1 33.943750 23.081750 93.684750
16021 1 33.943750 25.797250 96.400250
16022 1 36.659250 23.081750 96.400250
16023 1 36.659250 25.797250 93.684750
16024 1 32.586000 21.724000 97.758000
16025 1 32.586000 24.439500 100.473500
16026 1 35.301500 21.724000 100.473500
16027 1 35.301500 24.439500 97.758000
16028 1 33.943750 23.081750 99.115750
16029 1 33.943750 25.797250 101.831250
16030 1 36.659250 23.081750 101.831250
16031 1 36.659250 25.797250 99.115750
16032 1 32.586000 21.724000 103.189000
16033 1 32.586000 24.439500 105.904500
16034 1 35.301500 21.724000 105.904500
16035 1 35.301500 24.439500 103.189000
16036 1 33.943750 23.081750 104.546750
16037 1 33.943750 25.797250 107.262250
16038 1 36.659250 23.081750 107.262250
16039 1 36.659250 25.797250 104.546750
16040 1 32.586000 24.439500 133.059500
16041 1 35.301500 21.724000 133.059500
16042 1 33.943750 23.081750 131.701750
16043 1 33.943750 25.797250 134.417250
16044 1 36.659250 23.081750 134.417250
16045 1 36.659250 25.797250 131.701750
16046 1 32.586000 21.724000 135.775000
16047 1 32.586000 24.439500 138.490500
16048 1 35.301500 21.724000 138.490500
16049 1 35.301500 24.439500 135.775000
16050 1 33.943750 23.081750 137.132750
16051 1 33.943750 25.797250 139.848250
16052 1 36.659250 23.081750 139.848250
16053 1 36.659250 25.797250 137.132750
16054 1 32.586000 21.724000 141.206000
16055 1 32.586000 24.439500 143.921500
16056 1 35.301500 21.724000 143.921500
16057 1 35.301500 24.439500 141.206000
16058 1 33.943750 23.081750 142.563750
16059 1 33.943750 25.797250 145.279250
16060 1 36.659250 23.081750 145.279250
16061 1 36.659250 25.797250 142.563750
16062 1 32.586000 21.724000 146.637000
16063 1 32.586000 24.439500 149.352500
16064 1 35.301500 21.724000 149.352500
16065 1 35.301500 24.439500 146.637000
16066 1 33.943750 23.081750 147.994750
16067 1 33.943750 25.797250 150.710250
16068 1 36.659250 23.081750 150.710250
16069 1 36.659250 25.797250 147.994750
16070 1 32.586000 24.439500 176.507500
16071 1 35.301500 21.724000 176.507500
16072 1 33.943750 23.081750 175.149750
16073 1 33.943750 25.797250 177.865250
16074 1 36.659250 23.081750 177.865250
16075 1 36.659250 25.797250 175.149750
16076 1 32.586000 21.724000 179.223000
16077 1 32.586000 24.439500 181.938500
16078 1 35.301500 21.724000 181.938500
16079 1 35.301500 24.439500 179.223000
16080 1 33.943750 23.081750 180.580750
16081 1 33.943750 25.797250 183.296250
16082 1 36.659250 23.081750 183.296250
16083 1 36.659250 25.797250 180.580750
16084 1 32.586000 21.724000 184.654000
16085 1 32.586000 24.439500 187.369500
16086 1 35.301500 21.724000 187.369500
16087 1 35.301500 24.439500 184.654000
16088 1 33.943750 23.081750 186.011750
16089 1 33.943750 25.797250 188.727250
16090 1 36.659250 23.081750 188.727250
16091 1 36.659250 25.797250 186.011750
16092 1 32.586000 21.724000 190.085000
16093 1 32.586000 24.439500 192.800500
16094 1 35.301500 21.724000 192.800500
16095 1 35.301500 24.439500 190.085000
16096 1 33.943750 23.081750 191.442750
16097 1 33.943750 25.797250 194.158250
16098 1 36.659250 23.081750 194.158250
16099 1 36.659250 25.797250 191.442750
16100 1 32.586000 24.439500 219.955500
16101 1 35.301500 21.724000 219.955500
16102 1 33.943750 23.081750 218.597750
16103 1 33.943750 25.797250 221.313250
16104 1 36.659250 23.081750 221.313250
16105 1 36.659250 25.797250 218.597750
16106 1 32.586000 21.724000 222.671000
16107 1 32.586000 24.439500 225.386500
16108 1 35.301500 21.724000 225.386500
16109 1 35.301500 24.439500 222.671000
16110 1 33.943750 23.081750 224.028750
16111 1 33.943750 25.797250 226.744250
16112 1 36.659250 23.081750 226.744250
16113 1 36.659250 25.797250 224.028750
16114 1 32.586000 21.724000 228.102000
16115 1 32.586000 24.439500 230.817500
16116 1 35.301500 21.724000 230.817500
16117 1 35.301500 24.439500 228.102000
16118 1 33.943750 23.081750 229.459750
16119 1 33.943750 25.797250 232.175250
16120 1 36.659250 23.081750 232.175250
16121 1 36.659250 25.797250 229.459750
16122 1 32.586000 21.724000 233.533000
16123 1 32.586000 24.439500 236.248500
16124 1 35.301500 21.724000 236.248500
16125 1 35.301500 24.439500 233.533000
16126 1 33.943750 23.081750 234.890750
16127 1 33.943750 25.797250 237.606250
16128 1 36.659250 23.081750 237.606250
16129 1 36.659250 25.797250 234.890750
16130 1 32.586000 27.155000 0.000000
16131 1 32.586000 29.870500 2.715500
16132 1 35.301500 27.155000 2.715500
16133 1 35.301500 29.870500 0.000000
16134 1 33.943750 28.512750 1.357750
16135 1 33.943750 31.228250 4.073250
16136 1 36.659250 28.512750 4.073250
16137 1 36.659250 31.228250 1.357750
16138 1 32.586000 27.155000 5.431000
16139 1 32.586000 29.870500 8.146500
16140 1 35.301500 27.155000 8.146500
16141 1 35.301500 29.870500 5.431000
16142 1 33.943750 28.512750 6.788750
16143 1 33.943750 31.228250 9.504250
16144 1 36.659250 28.512750 9.504250
16145 1 36.659250 31.228250 6.788750
16146 1 32.586000 27.155000 10.862000
16147 1 32.586000 29.870500 13.577500
16148 1 35.301500 27.155000 13.577500
16149 1 35.301500 29.870500 10.862000
16150 1 33.943750 28.512750 12.219750
16151 1 33.943750 31.228250 14.935250
16152 1 36.659250 28.512750 14.935250
16153 1 36.659250 31.228250 12.219750
16154 1 32.586000 27.155000 16.293000
16155 1 32.586000 29.870500 19.008500
16156 1 35.301500 27.155000 19.008500
16157 1 35.301500 29.870500 16.293000
16158 1 33.943750 28.512750 17.650750
16159 1 33.943750 31.228250 20.366250
16160 1 36.659250 28.512750 20.366250
16161 1 36.659250 31.228250 17.650750
16162 1 32.586000 29.870500 24.439500
16163 1 35.301500 29.870500 21.724000
16164 1 33.943750 28.512750 23.081750
16165 1 33.943750 31.228250 25.797250
16166 1 36.659250 28.512750 25.797250
16167 1 36.659250 31.228250 23.081750
16168 1 32.586000 29.870500 29.870500
16169 1 35.301500 29.870500 27.155000
16170 1 33.943750 28.512750 28.512750
16171 1 33.943750 31.228250 31.228250
16172 1 36.659250 28.512750 31.228250
16173 1 36.659250 31.228250 28.512750
16174 1 32.586000 29.870500 35.301500
16175 1 35.301500 29.870500 32.586000
16176 1 33.943750 28.512750 33.943750
16177 1 33.943750 31.228250 36.659250
16178 1 36.659250 28.512750 36.659250
16179 1 36.659250 31.228250 33.943750
16180 1 32.586000 29.870500 40.732500
16181 1 35.301500 29.870500 38.017000
16182 1 33.943750 28.512750 39.374750
16183 1 33.943750 31.228250 42.090250
16184 1 36.659250 28.512750 42.090250
16185 1 36.659250 31.228250 39.374750
16186 1 32.586000 29.870500 46.163500
16187 1 35.301500 27.155000 46.163500
16188 1 35.301500 29.870500 43.448000
16189 1 33.943750 28.512750 44.805750
16190 1 33.943750 31.228250 47.521250
16191 1 36.659250 28.512750 47.521250
16192 1 36.659250 31.228250 44.805750
16193 1 32.586000 27.155000 48.879000
16194 1 32.586000 29.870500 51.594500
16195 1 35.301500 27.155000 51.594500
16196 1 35.301500 29.870500 48.879000
16197 1 33.943750 28.512750 50.236750
16198 1 33.943750 31.228250 52.952250
16199 1 36.659250 28.512750 52.952250
16200 1 36.659250 31.228250 50.236750
16201 1 32.586000 27.155000 54.310000
16202 1 32.586000 29.870500 57.025500
16203 1 35.301500 27.155000 57.025500
16204 1 35.301500 29.870500 54.310000
16205 1 33.943750 28.512750 55.667750
16206 1 33.943750 31.228250 58.383250
16207 1 36.659250 28.512750 58.383250
16208 1 36.659250 31.228250 55.667750
16209 1 32.586000 27.155000 59.741000
16210 1 32.586000 29.870500 62.456500
16211 1 35.301500 27.155000 62.456500
16212 1 35.301500 29.870500 59.741000
16213 1 33.943750 28.512750 61.098750
16214 1 33.943750 31.228250 63.814250
16215 1 36.659250 28.512750 63.814250
16216 1 36.659250 31.228250 61.098750
16217 1 32.586000 29.870500 67.887500
16218 1 35.301500 29.870500 65.172000
16219 1 33.943750 28.512750 66.529750
16220 1 33.943750 31.228250 69.245250
16221 1 36.659250 28.512750 69.245250
16222 1 36.659250 31.228250 66.529750
16223 1 32.586000 29.870500 73.318500
16224 1 35.301500 29.870500 70.603000
16225 1 33.943750 28.512750 71.960750
16226 1 33.943750 31.228250 74.676250
16227 1 36.659250 28.512750 74.676250
16228 1 36.659250 31.228250 71.960750
16229 1 32.586000 29.870500 78.749500
16230 1 35.301500 29.870500 76.034000
16231 1 33.943750 28.512750 77.391750
16232 1 33.943750 31.228250 80.107250
16233 1 36.659250 28.512750 80.107250
16234 1 36.659250 31.228250 77.391750
16235 1 32.586000 29.870500 84.180500
16236 1 35.301500 29.870500 81.465000
16237 1 33.943750 28.512750 82.822750
16238 1 33.943750 31.228250 85.538250
16239 1 36.659250 28.512750 85.538250
16240 1 36.659250 31.228250 82.822750
16241 1 32.586000 29.870500 89.611500
16242 1 35.301500 27.155000 89.611500
16243 1 35.301500 29.870500 86.896000
16244 1 33.943750 28.512750 88.253750
16245 1 33.943750 31.228250 90.969250
16246 1 36.659250 28.512750 90.969250
16247 1 36.659250 31.228250 88.253750
16248 1 32.586000 27.155000 92.327000
16249 1 32.586000 29.870500 95.042500
16250 1 35.301500 27.155000 95.042500
16251 1 35.301500 29.870500 92.327000
16252 1 33.943750 28.512750 93.684750
16253 1 33.943750 31.228250 96.400250
16254 1 36.659250 28.512750 96.400250
16255 1 36.659250 31.228250 93.684750
16256 1 32.586000 27.155000 97.758000
16257 1 32.586000 29.870500 100.473500
16258 1 35.301500 27.155000 100.473500
16259 1 35.301500 29.870500 97.758000
16260 1 33.943750 28.512750 99.115750
16261 1 33.943750 31.228250 101.831250
16262 1 36.659250 28.512750 101.831250
16263 1 36.659250 31.228250 99.115750
16264 1 32.586000 27.155000 103.189000
16265 1 32.586000 29.870500 105.904500
16266 1 35.301500 27.155000 105.904500
16267 1 35.301500 29.870500 103.189000
16268 1 33.943750 28.512750 104.546750
16269 1 33.943750 31.228250 107.262250
16270 1 36.659250 28.512750 107.262250
16271 1 36.659250 31.228250 104.546750
16272 1 32.586000 29.870500 111.335500
16273 1 35.301500 29.870500 108.620000
16274 1 33.943750 28.512750 109.977750
16275 1 33.943750 31.228250 112.693250
16276 1 36.659250 28.512750 112.693250
16277 1 36.659250 31.228250 109.977750
16278 1 32.586000 29.870500 116.766500
16279 1 35.301500 29.870500 114.051000
16280 1 33.943750 28.512750 115.408750
16281 1 33.943750 31.228250 118.124250
16282 1 36.659250 28.512750 118.124250
16283 1 36.659250 31.228250 115.408750
16284 1 32.586000 29.870500 122.197500
16285 1 35.301500 29.870500 119.482000
16286 1 33.943750 28.512750 120.839750
16287 1 33.943750 31.228250 123.555250
16288 1 36.659250 28.512750 123.555250
16289 1 36.659250 31.228250 120.839750
16290 1 32.586000 29.870500 127.628500
16291 1 35.301500 29.870500 124.913000
16292 1 33.943750 28.512750 126.270750
16293 1 33.943750 31.228250 128.986250
16294 1 36.659250 28.512750 128.986250
16295 1 36.659250 31.228250 126.270750
16296 1 32.586000 29.870500 133.059500
16297 1 35.301500 27.155000 133.059500
16298 1 35.301500 29.870500 130.344000
16299 1 33.943750 28.512750 131.701750
16300 1 33.943750 31.228250 134.417250
16301 1 36.659250 28.512750 134.417250
16302 1 36.659250 31.228250 131.701750
16303 1 32.586000 27.155000 135.775000
16304 1 32.586000 29.870500 138.490500
16305 1 35.301500 27.155000 138.490500
16306 1 35.301500 29.870500 135.775000
16307 1 33.943750 28.512750 137.132750
16308 1 33.943750 31.228250 139.848250
16309 1 36.659250 28.512750 139.848250
16310 1 36.659250 31.228250 137.132750
16311 1 32.586000 27.155000 141.206000
16312 1 32.586000 29.870500 143.921500
16313 1 35.301500 27.155000 143.921500
16314 1 35.301500 29.870500 141.206000
16315 1 33.943750 28.512750 142.563750
16316 1 33.943750 31.228250 145.279250
16317 1 36.659250 28.512750 145.279250
16318 1 36.659250 31.228250 142.563750
16319 1 32.586000 27.155000 146.637000
16320 1 32.586000 29.870500 149.352500
16321 1 35.301500 27.155000 149.352500
16322 1 35.301500 29.870500 146.637000
16323 1 33.943750 28.512750 147.994750
16324 1 33.943750 31.228250 150.710250
16325 1 36.659250 28.512750 150.710250
16326 1 36.659250 31.228250 147.994750
16327 1 32.586000 29.870500 154.783500
16328 1 35.301500 29.870500 152.068000
16329 1 33.943750 28.512750 153.425750
16330 1 33.943750 31.228250 156.141250
16331 1 36.659250 28.512750 156.141250
16332 1 36.659250 31.228250 153.425750
16333 1 32.586000 29.870500 160.214500
16334 1 35.301500 29.870500 157.499000
16335 1 33.943750 28.512750 158.856750
16336 1 33.943750 31.228250 161.572250
16337 1 36.659250 28.512750 161.572250
16338 1 36.659250 31.228250 158.856750
16339 1 32.586000 29.870500 165.645500
16340 1 35.301500 29.870500 162.930000
16341 1 33.943750 28.512750 164.287750
16342 1 33.943750 31.228250 167.003250
16343 1 36.659250 28.512750 167.003250
16344 1 36.659250 31.228250 164.287750
16345 1 32.586000 29.870500 171.076500
16346 1 35.301500 29.870500 168.361000
16347 1 33.943750 28.512750 169.718750
16348 1 33.943750 31.228250 172.434250
16349 1 36.659250 28.512750 172.434250
16350 1 36.659250 31.228250 169.718750
16351 1 32.586000 29.870500 176.507500
16352 1 35.301500 27.155000 176.507500
16353 1 35.301500 29.870500 173.792000
16354 1 33.943750 28.512750 175.149750
16355 1 33.943750 31.228250 177.865250
16356 1 36.659250 28.512750 177.865250
16357 1 36.659250 31.228250 175.149750
16358 1 32.586000 27.155000 179.223000
16359 1 32.586000 29.870500 181.938500
16360 1 35.301500 27.155000 181.938500
16361 1 35.301500 29.870500 179.223000
16362 1 33.943750 28.512750 180.580750
16363 1 33.943750 31.228250 183.296250
16364 1 36.659250 28.512750 183.296250
16365 1 36.659250 31.228250 180.580750
16366 1 32.586000 27.155000 184.654000
16367 1 32.586000 29.870500 187.369500
16368 1 35.301500 27.155000 187.369500
16369 1 35.301500 29.870500 184.654000
16370 1 33.943750 28.512750 186.011750
16371 1 33.943750 31.228250 188.727250
16372 1 36.659250 28.512750 188.727250
16373 1 36.659250 31.228250 186.011750
16374 1 32.586000 27.155000 190.085000
16375 1 32.586000 29.870500 192.800500
16376 1 35.301500 27.155000 192.800500
16377 1 35.301500 29.870500 190.085000
16378 1 33.943750 28.512750 191.442750
16379 1 33.943750 31.228250 194.158250
16380 1 36.659250 28.512750 194.158250
16381 1 36.659250 31.228250 191.442750
16382 1 32.586000 29.870500 198.231500
16383 1 35.301500 29.870500 195.516000
16384 1 33.943750 28.512750 196.873750
16385 1 33.943750 31.228250 199.589250
16386 1 36.659250 28.512750 199.589250
16387 1 36.659250 31.228250 196.873750
16388 1 32.586000 29.870500 203.662500
16389 1 35.301500 29.870500 200.947000
16390 1 33.943750 28.512750 202.304750
16391 1 33.943750 31.228250 205.020250
16392 1 36.659250 28.512750 205.020250
16393 1 36.659250 31.228250 202.304750
16394 1 32.586000 29.870500 209.093500
16395 1 35.301500 29.870500 206.378000
16396 1 33.943750 28.512750 207.735750
16397 1 33.943750 31.228250 210.451250
16398 1 36.659250 28.512750 210.451250
16399 1 36.659250 31.228250 207.735750
16400 1 32.586000 29.870500 214.524500
16401 1 35.301500 29.870500 211.809000
16402 1 33.943750 28.512750 213.166750
16403 1 33.943750 31.228250 215.882250
16404 1 36.659250 28.512750 215.882250
16405 1 36.659250 31.228250 213.166750
16406 1 32.586000 29.870500 219.955500
16407 1 35.301500 27.155000 219.955500
16408 1 35.301500 29.870500 217.240000
16409 1 33.943750 28.512750 218.597750
16410 1 33.943750 31.228250 221.313250
16411 1 36.659250 28.512750 221.313250
16412 1 36.659250 31.228250 218.597750
16413 1 32.586000 27.155000 222.671000
16414 1 32.586000 29.870500 225.386500
16415 1 35.301500 27.155000 225.386500
16416 1 35.301500 29.870500 222.671000
16417 1 33.943750 28.512750 224.028750
16418 1 33.943750 31.228250 226.744250
16419 1 36.659250 28.512750 226.744250
16420 1 36.659250 31.228250 224.028750
16421 1 32.586000 27.155000 228.102000
16422 1 32.586000 29.870500 230.817500
16423 1 35.301500 27.155000 230.817500
16424 1 35.301500 29.870500 228.102000
16425 1 33.943750 28.512750 229.459750
16426 1 33.943750 31.228250 232.175250
16427 1 36.659250 28.512750 232.175250
16428 1 36.659250 31.228250 229.459750
16429 1 32.586000 27.155000 233.533000
16430 1 32.586000 29.870500 236.248500
16431 1 35.301500 27.155000 236.248500
16432 1 35.301500 29.870500 233.533000
16433 1 33.943750 28.512750 234.890750
16434 1 33.943750 31.228250 237.606250
16435 1 36.659250 28.512750 237.606250
16436 1 36.659250 31.228250 234.890750
16437 1 32.586000 29.870500 241.679500
16438 1 35.301500 29.870500 238.964000
16439 1 33.943750 28.512750 240.321750
16440 1 33.943750 31.228250 243.037250
16441 1 36.659250 28.512750 243.037250
16442 1 36.659250 31.228250 240.321750
16443 1 32.586000 29.870500 247.110500
16444 1 35.301500 29.870500 244.395000
16445 1 33.943750 28.512750 245.752750
16446 1 33.943750 31.228250 248.468250
16447 1 36.659250 28.512750 248.468250
16448 1 36.659250 31.228250 245.752750
16449 1 32.586000 29.870500 252.541500
16450 1 35.301500 29.870500 249.826000
16451 1 33.943750 28.512750 251.183750
16452 1 33.943750 31.228250 253.899250
16453 1 36.659250 28.512750 253.899250
16454 1 36.659250 31.228250 251.183750
16455 1 32.586000 29.870500 257.972500
16456 1 35.301500 29.870500 255.257000
16457 1 33.943750 28.512750 256.614750
16458 1 33.943750 31.228250 259.330250
16459 1 36.659250 28.512750 259.330250
16460 1 36.659250 31.228250 256.614750
16461 1 32.586000 32.586000 0.000000
16462 1 32.586000 35.301500 2.715500
16463 1 35.301500 32.586000 2.715500
16464 1 35.301500 35.301500 0.000000
16465 1 33.943750 33.943750 1.357750
16466 1 33.943750 36.659250 4.073250
16467 1 36.659250 33.943750 4.073250
16468 1 36.659250 36.659250 1.357750
16469 1 32.586000 32.586000 5.431000
16470 1 32.586000 35.301500 8.146500
16471 1 35.301500 32.586000 8.146500
16472 1 35.301500 35.301500 5.431000
16473 1 33.943750 33.943750 6.788750
16474 1 33.943750 36.659250 9.504250
16475 1 36.659250 33.943750 9.504250
16476 1 36.659250 36.659250 6.788750
16477 1 32.586000 32.586000 10.862000
16478 1 32.586000 35.301500 13.577500
16479 1 35.301500 32.586000 13.577500
16480 1 35.301500 35.301500 10.862000
16481 1 33.943750 33.943750 12.219750
16482 1 33.943750 36.659250 14.935250
16483 1 36.659250 33.943750 14.935250
16484 1 36.659250 36.659250 12.219750
16485 1 32.586000 32.586000 16.293000
16486 1 32.586000 35.301500 19.008500
16487 1 35.301500 32.586000 19.008500
16488 1 35.301500 35.301500 16.293000
16489 1 33.943750 33.943750 17.650750
16490 1 33.943750 36.659250 20.366250
16491 1 36.659250 33.943750 20.366250
16492 1 36.659250 36.659250 17.650750
16493 1 32.586000 32.586000 21.724000
16494 1 32.586000 35.301500 24.439500
16495 1 35.301500 32.586000 24.439500
16496 1 35.301500 35.301500 21.724000
16497 1 33.943750 33.943750 23.081750
16498 1 33.943750 36.659250 25.797250
16499 1 36.659250 33.943750 25.797250
16500 1 36.659250 36.659250 23.081750
16501 1 32.586000 32.586000 27.155000
16502 1 32.586000 35.301500 29.870500
16503 1 35.301500 32.586000 29.870500
16504 1 35.301500 35.301500 27.155000
16505 1 33.943750 33.943750 28.512750
16506 1 33.943750 36.659250 31.228250
16507 1 36.659250 33.943750 31.228250
16508 1 36.659250 36.659250 28.512750
16509 1 32.586000 32.586000 32.586000
16510 1 32.586000 35.301500 35.301500
16511 1 35.301500 32.586000 35.301500
16512 1 35.301500 35.301500 32.586000
16513 1 33.943750 33.943750 33.943750
16514 1 33.943750 36.659250 36.659250
16515 1 36.659250 33.943750 36.659250
16516 1 36.659250 36.659250 33.943750
16517 1 32.586000 32.586000 38.017000
16518 1 32.586000 35.301500 40.732500
16519 1 35.301500 32.586000 40.732500
16520 1 35.301500 35.301500 38.017000
16521 1 33.943750 33.943750 39.374750
16522 1 33.943750 36.659250 42.090250
16523 1 36.659250 33.943750 42.090250
16524 1 36.659250 36.659250 39.374750
16525 1 32.586000 32.586000 43.448000
16526 1 32.586000 35.301500 46.163500
16527 1 35.301500 32.586000 46.163500
16528 1 35.301500 35.301500 43.448000
16529 1 33.943750 33.943750 44.805750
16530 1 33.943750 36.659250 47.521250
16531 1 36.659250 33.943750 47.521250
16532 1 36.659250 36.659250 44.805750
16533 1 32.586000 32.586000 48.879000
16534 1 32.586000 35.301500 51.594500
16535 1 35.301500 32.586000 51.594500
16536 1 35.301500 35.301500 48.879000
16537 1 33.943750 33.943750 50.236750
16538 1 33.943750 36.659250 52.952250
16539 1 36.659250 33.943750 52.952250
16540 1 36.659250 36.659250 50.236750
16541 1 32.586000 32.586000 54.310000
16542 1 32.586000 35.301500 57.025500
16543 1 35.301500 32.586000 57.025500
16544 1 35.301500 35.301500 54.310000
16545 1 33.943750 33.943750 55.667750
16546 1 33.943750 36.659250 58.383250
16547 1 36.659250 33.943750 58.383250
16548 1 36.659250 36.659250 55.667750
16549 1 32.586000 32.586000 59.741000
16550 1 32.586000 35.301500 62.456500
16551 1 35.301500 32.586000 62.456500
16552 1 35.301500 35.301500 59.741000
16553 1 33.943750 33.943750 61.098750
16554 1 33.943750 36.659250 63.814250
16555 1 36.659250 33.943750 63.814250
16556 1 36.659250 36.659250 61.098750
16557 1 32.586000 32.586000 65.172000
16558 1 32.586000 35.301500 67.887500
16559 1 35.301500 32.586000 67.887500
16560 1 35.301500 35.301500 65.172000
16561 1 33.943750 33.943750 66.529750
16562 1 33.943750 36.659250 69.245250
16563 1 36.659250 33.943750 69.245250
16564 1 36.659250 36.659250 66.529750
16565 1 32.586000 32.586000 70.603000
16566 1 32.586000 35.301500 73.318500
16567 1 35.301500 32.586000 73.318500
16568 1 35.301500 35.301500 70.603000
16569 1 33.943750 33.943750 71.960750
16570 1 33.943750 36.659250 74.676250
16571 1 36.659250 33.943750 74.676250
16572 1 36.659250 36.659250 71.960750
16573 1 32.586000 32.586000 76.034000
16574 1 32.586000 35.301500 78.749500
16575 1 35.301500 32.586000 78.749500
16576 1 35.301500 35.301500 76.034000
16577 1 33.943750 33.943750 77.391750
16578 1 33.943750 36.659250 80.107250
16579 1 36.659250 33.943750 80.107250
16580 1 36.659250 36.659250 77.391750
16581 1 32.586000 32.586000 81.465000
16582 1 32.586000 35.301500 84.180500
16583 1 35.301500 32.586000 84.180500
16584 1 35.301500 35.301500 81.465000
16585 1 33.943750 33.943750 82.822750
16586 1 33.943750 36.659250 85.538250
16587 1 36.659250 33.943750 85.538250
16588 1 36.659250 36.659250 82.822750
16589 1 32.586000 32.586000 86.896000
16590 1 32.586000 35.301500 89.611500
16591 1 35.301500 32.586000 89.611500
16592 1 35.301500 35.301500 86.896000
16593 1 33.943750 33.943750 88.253750
16594 1 33.943750 36.659250 90.969250
16595 1 36.659250 33.943750 90.969250
16596 1 36.659250 36.659250 88.253750
16597 1 32.586000 32.586000 92.327000
16598 1 32.586000 35.301500 95.042500
16599 1 35.301500 32.586000 95.042500
16600 1 35.301500 35.301500 92.327000
16601 1 33.943750 33.943750 93.684750
16602 1 33.943750 36.659250 96.400250
16603 1 36.659250 33.943750 96.400250
16604 1 36.659250 36.659250 93.684750
16605 1 32.586000 32.586000 97.758000
16606 1 32.586000 35.301500 100.473500
16607 1 35.301500 32.586000 100.473500
16608 1 35.301500 35.301500 97.758000
16609 1 33.943750 33.943750 99.115750
16610 1 33.943750 36.659250 101.831250
16611 1 36.659250 33.943750 101.831250
16612 1 36.659250 36.659250 99.115750
16613 1 32.586000 32.586000 103.189000
16614 1 32.586000 35.301500 105.904500
16615 1 35.301500 32.586000 105.904500
16616 1 35.301500 35.301500 103.189000
16617 1 33.943750 33.943750 104.546750
16618 1 33.943750 36.659250 107.262250
16619 1 36.659250 33.943750 107.262250
16620 1 36.659250 36.659250 104.546750
16621 1 32.586000 32.586000 108.620000
16622 1 32.586000 35.301500 111.335500
16623 1 35.301500 32.586000 111.335500
16624 1 35.301500 35.301500 108.620000
16625 1 33.943750 33.943750 109.977750
16626 1 33.943750 36.659250 112.693250
16627 1 36.659250 33.943750 112.693250
16628 1 36.659250 36.659250 109.977750
16629 1 32.586000 32.586000 114.051000
16630 1 32.586000 35.301500 116.766500
16631 1 35.301500 32.586000 116.766500
16632 1 35.301500 35.301500 114.051000
16633 1 33.943750 33.943750 115.408750
16634 1 33.943750 36.659250 118.124250
16635 1 36.659250 33.943750 118.124250
16636 1 36.659250 36.659250 115.408750
16637 1 32.586000 32.586000 119.482000
16638 1 32.586000 35.301500 122.197500
16639 1 35.301500 32.586000 122.197500
16640 1 35.301500 35.301500 119.482000
16641 1 33.943750 33.943750 120.839750
16642 1 33.943750 36.659250 123.555250
16643 1 36.659250 33.943750 123.555250
16644 1 36.659250 36.659250 120.839750
16645 1 32.586000 32.586000 124.913000
16646 1 32.586000 35.301500 127.628500
16647 1 35.301500 32.586000 127.628500
16648 1 35.301500 35.301500 124.913000
16649 1 33.943750 33.943750 126.270750
16650 1 33.943750 36.659250 128.986250
16651 1 36.659250 33.943750 128.986250
16652 1 36.659250 36.659250 126.270750
16653 1 32.586000 32.586000 130.344000
16654 1 32.586000 35.301500 133.059500
16655 1 35.301500 32.586000 133.059500
16656 1 35.301500 35.301500 130.344000
16657 1 33.943750 33.943750 131.701750
16658 1 33.943750 36.659250 134.417250
16659 1 36.659250 33.943750 134.417250
16660 1 36.659250 36.659250 131.701750
16661 1 32.586000 32.586000 135.775000
16662 1 32.586000 35.301500 138.490500
16663 1 35.301500 32.586000 138.490500
16664 1 35.301500 35.301500 135.775000
16665 1 33.943750 33.943750 137.132750
16666 1 33.943750 36.659250 139.848250
16667 1 36.659250 33.943750 139.848250
16668 1 36.659250 36.659250 137.132750
16669 1 32.586000 32.586000 141.206000
16670 1 32.586000 35.301500 143.921500
16671 1 35.301500 32.586000 143.921500
16672 1 35.301500 35.301500 141.206000
16673 1 33.943750 33.943750 142.563750
16674 1 33.943750 36.659250 145.279250
16675 1 36.659250 33.943750 145.279250
16676 1 36.659250 36.659250 142.563750
16677 1 32.586000 32.586000 146.637000
16678 1 32.586000 35.301500 149.352500
16679 1 35.301500 32.586000 149.352500
16680 1 35.301500 35.301500 146.637000
16681 1 33.943750 33.943750 147.994750
16682 1 33.943750 36.659250 150.710250
16683 1 36.659250 33.943750 150.710250
16684 1 36.659250 36.659250 147.994750
16685 1 32.586000 32.586000 152.068000
16686 1 32.586000 35.301500 154.783500
16687 1 35.301500 32.586000 154.783500
16688 1 35.301500 35.301500 152.068000
16689 1 33.943750 33.943750 153.425750
16690 1 33.943750 36.659250 156.141250
16691 1 36.659250 33.943750 156.141250
16692 1 36.659250 36.659250 153.425750
16693 1 32.586000 32.586000 157.499000
16694 1 32.586000 35.301500 160.214500
16695 1 35.301500 32.586000 160.214500
16696 1 35.301500 35.301500 157.499000
16697 1 33.943750 33.943750 158.856750
16698 1 33.943750 36.659250 161.572250
16699 1 36.659250 33.943750 161.572250
16700 1 36.659250 36.659250 158.856750
16701 1 32.586000 32.586000 162.930000
16702 1 32.586000 35.301500 165.645500
16703 1 35.301500 32.586000 165.645500
16704 1 35.301500 35.301500 162.930000
16705 1 33.943750 33.943750 164.287750
16706 1 33.943750 36.659250 167.003250
16707 1 36.659250 33.943750 167.003250
16708 1 36.659250 36.659250 164.287750
16709 1 32.586000 32.586000 168.361000
16710 1 32.586000 35.301500 171.076500
16711 1 35.301500 32.586000 171.076500
16712 1 35.301500 35.301500 168.361000
16713 1 33.943750 33.943750 169.718750
16714 1 33.943750 36.659250 172.434250
16715 1 36.659250 33.943750 172.434250
16716 1 36.659250 36.659250 169.718750
16717 1 32.586000 32.586000 173.792000
16718 1 32.586000 35.301500 176.507500
16719 1 35.301500 32.586000 176.507500
16720 1 35.301500 35.301500 173.792000
16721 1 33.943750 33.943750 175.149750
16722 1 33.943750 36.659250 177.865250
16723 1 36.659250 33.943750 177.865250
16724 1 36.659250 36.659250 175.149750
16725 1 32.586000 32.586000 179.223000
16726 1 32.586000 35.301500 181.938500
16727 1 35.301500 32.586000 181.938500
16728 1 35.301500 35.301500 179.223000
16729 1 33.943750 33.943750 180.580750
16730 1 33.943750 36.659250 183.296250
16731 1 36.659250 33.943750 183.296250
16732 1 36.659250 36.659250 180.580750
16733 1 32.586000 32.586000 184.654000
16734 1 32.586000 35.301500 187.369500
16735 1 35.301500 32.586000 187.369500
16736 1 35.301500 35.301500 184.654000
16737 1 33.943750 33.943750 186.011750
16738 1 33.943750 36.659250 188.727250
16739 1 36.659250 33.943750 188.727250
16740 1 36.659250 36.659250 186.011750
16741 1 32.586000 32.586000 190.085000
16742 1 32.586000 35.301500 192.800500
16743 1 35.301500 32.586000 192.800500
16744 1 35.301500 35.301500 190.085000
16745 1 33.943750 33.943750 191.442750
16746 1 33.943750 36.659250 194.158250
16747 1 36.659250 33.943750 194.158250
16748 1 36.659250 36.659250 191.442750
16749 1 32.586000 32.586000 195.516000
16750 1 32.586000 35.301500 198.231500
16751 1 35.301500 32.586000 198.231500
16752 1 35.301500 35.301500 195.516000
16753 1 33.943750 33.943750 196.873750
16754 1 33.943750 36.659250 199.589250
16755 1 36.659250 33.943750 199.589250
16756 1 36.659250 36.659250 196.873750
16757 1 32.586000 32.586000 200.947000
16758 1 32.586000 35.301500 203.662500
16759 1 35.301500 32.586000 203.662500
16760 1 35.301500 35.301500 200.947000
16761 1 33.943750 33.943750 202.304750
16762 1 33.943750 36.659250 205.020250
16763 1 36.659250 33.943750 205.020250
16764 1 36.659250 36.659250 202.304750
16765 1 32.586000 32.586000 206.378000
16766 1 32.586000 35.301500 209.093500
16767 1 35.301500 32.586000 209.093500
16768 1 35.301500 35.301500 206.378000
16769 1 33.943750 33.943750 207.735750
16770 1 33.943750 36.659250 210.451250
16771 1 36.659250 33.943750 210.451250
16772 1 36.659250 36.659250 207.735750
16773 1 32.586000 32.586000 211.809000
16774 1 32.586000 35.301500 214.524500
16775 1 35.301500 32.586000 214.524500
16776 1 35.301500 35.301500 211.809000
16777 1 33.943750 33.943750 213.166750
16778 1 33.943750 36.659250 215.882250
16779 1 36.659250 33.943750 215.882250
16780 1 36.659250 36.659250 213.166750
16781 1 32.586000 32.586000 217.240000
16782 1 32.586000 35.301500 219.955500
16783 1 35.301500 32.586000 219.955500
16784 1 35.301500 35.301500 217.240000
16785 1 33.943750 33.943750 218.597750
16786 1 33.943750 36.659250 221.313250
16787 1 36.659250 33.943750 221.313250
16788 1 36.659250 36.659250 218.597750
16789 1 32.586000 32.586000 222.671000
16790 1 32.586000 35.301500 225.386500
16791 1 35.301500 32.586000 225.386500
16792 1 35.301500 35.301500 222.671000
16793 1 33.943750 33.943750 224.028750
16794 1 33.943750 36.659250 226.744250
16795 1 36.659250 33.943750 226.744250
16796 1 36.659250 36.659250 224.028750
16797 1 32.586000 32.586000 228.102000
16798 1 32.586000 35.301500 230.817500
16799 1 35.301500 32.586000 230.817500
16800 1 35.301500 35.301500 228.102000
16801 1 33.943750 33.943750 229.459750
16802 1 33.943750 36.659250 232.175250
16803 1 36.659250 33.943750 232.175250
16804 1 36.659250 36.659250 229.459750
16805 1 32.586000 32.586000 233.533000
16806 1 32.586000 35.301500 236.248500
16807 1 35.301500 32.586000 236.248500
16808 1 35.301500 35.301500 233.533000
16809 1 33.943750 33.943750 234.890750
16810 1 33.943750 36.659250 237.606250
16811 1 36.659250 33.943750 237.606250
16812 1 36.659250 36.659250 234.890750
16813 1 32.586000 32.586000 238.964000
16814 1 32.586000 35.301500 241.679500
16815 1 35.301500 32.586000 241.679500
16816 1 35.301500 35.301500 238.964000
16817 1 33.943750 33.943750 240.321750
16818 1 33.943750 36.659250 243.037250
16819 1 36.659250 33.943750 243.037250
16820 1 36.659250 36.659250 240.321750
16821 1 32.586000 32.586000 244.395000
16822 1 32.586000 35.301500 247.110500
16823 1 35.301500 32.586000 247.110500
16824 1 35.301500 35.301500 244.395000
16825 1 33.943750 33.943750 245.752750
16826 1 33.943750 36.659250 248.468250
16827 1 36.659250 33.943750 248.468250
16828 1 36.659250 36.659250 245.752750
16829 1 32.586000 32.586000 249.826000
16830 1 32.586000 35.301500 252.541500
16831 1 35.301500 32.586000 252.541500
16832 1 35.301500 35.301500 249.826000
16833 1 33.943750 33.943750 251.183750
16834 1 33.943750 36.659250 253.899250
16835 1 36.659250 33.943750 253.899250
16836 1 36.659250 36.659250 251.183750
16837 1 32.586000 32.586000 255.257000
16838 1 32.586000 35.301500 257.972500
16839 1 35.301500 32.586000 257.972500
16840 1 35.301500 35.301500 255.257000
16841 1 33.943750 33.943750 256.614750
16842 1 33.943750 36.659250 259.330250
16843 1 36.659250 33.943750 259.330250
16844 1 36.659250 36.659250 256.614750
16845 1 32.586000 38.017000 0.000000
16846 1 32.586000 40.732500 2.715500
16847 1 35.301500 38.017000 2.715500
16848 1 35.301500 40.732500 0.000000
16849 1 33.943750 39.374750 1.357750
16850 1 33.943750 42.090250 4.073250
16851 1 36.659250 39.374750 4.073250
16852 1 36.659250 42.090250 1.357750
16853 1 32.586000 38.017000 5.431000
16854 1 32.586000 40.732500 8.146500
16855 1 35.301500 38.017000 8.146500
16856 1 35.301500 40.732500 5.431000
16857 1 33.943750 39.374750 6.788750
16858 1 33.943750 42.090250 9.504250
16859 1 36.659250 39.374750 9.504250
16860 1 36.659250 42.090250 6.788750
16861 1 32.586000 38.017000 10.862000
16862 1 32.586000 40.732500 13.577500
16863 1 35.301500 38.017000 13.577500
16864 1 35.301500 40.732500 10.862000
16865 1 33.943750 39.374750 12.219750
16866 1 33.943750 42.090250 14.935250
16867 1 36.659250 39.374750 14.935250
16868 1 36.659250 42.090250 12.219750
16869 1 32.586000 38.017000 16.293000
16870 1 32.586000 40.732500 19.008500
16871 1 35.301500 38.017000 19.008500
16872 1 35.301500 40.732500 16.293000
16873 1 33.943750 39.374750 17.650750
16874 1 33.943750 42.090250 20.366250
16875 1 36.659250 39.374750 20.366250
16876 1 36.659250 42.090250 17.650750
16877 1 32.586000 38.017000 21.724000
16878 1 32.586000 40.732500 24.439500
16879 1 35.301500 38.017000 24.439500
16880 1 35.301500 40.732500 21.724000
16881 1 33.943750 39.374750 23.081750
16882 1 33.943750 42.090250 25.797250
16883 1 36.659250 39.374750 25.797250
16884 1 36.659250 42.090250 23.081750
16885 1 32.586000 38.017000 27.155000
16886 1 32.586000 40.732500 29.870500
16887 1 35.301500 38.017000 29.870500
16888 1 35.301500 40.732500 27.155000
16889 1 33.943750 39.374750 28.512750
16890 1 33.943750 42.090250 31.228250
16891 1 36.659250 39.374750 31.228250
16892 1 36.659250 42.090250 28.512750
16893 1 32.586000 38.017000 32.586000
16894 1 32.586000 40.732500 35.301500
16895 1 35.301500 38.017000 35.301500
16896 1 35.301500 40.732500 32.586000
16897 1 33.943750 39.374750 33.943750
16898 1 33.943750 42.090250 36.659250
16899 1 36.659250 39.374750 36.659250
16900 1 36.659250 42.090250 33.943750
16901 1 32.586000 38.017000 38.017000
16902 1 32.586000 40.732500 40.732500
16903 1 35.301500 38.017000 40.732500
16904 1 35.301500 40.732500 38.017000
16905 1 33.943750 39.374750 39.374750
16906 1 33.943750 42.090250 42.090250
16907 1 36.659250 39.374750 42.090250
16908 1 36.659250 42.090250 39.374750
16909 1 32.586000 38.017000 43.448000
16910 1 32.586000 40.732500 46.163500
16911 1 35.301500 38.017000 46.163500
16912 1 35.301500 40.732500 43.448000
16913 1 33.943750 39.374750 44.805750
16914 1 33.943750 42.090250 47.521250
16915 1 36.659250 39.374750 47.521250
16916 1 36.659250 42.090250 44.805750
16917 1 32.586000 38.017000 48.879000
16918 1 32.586000 40.732500 51.594500
16919 1 35.301500 38.017000 51.594500
16920 1 35.301500 40.732500 48.879000
16921 1 33.943750 39.374750 50.236750
16922 1 33.943750 42.090250 52.952250
16923 1 36.659250 39.374750 52.952250
16924 1 36.659250 42.090250 50.236750
16925 1 32.586000 38.017000 54.310000
16926 1 32.586000 40.732500 57.025500
16927 1 35.301500 38.017000 57.025500
16928 1 35.301500 40.732500 54.310000
16929 1 33.943750 39.374750 55.667750
16930 1 33.943750 42.090250 58.383250
16931 1 36.659250 39.374750 58.383250
16932 1 36.659250 42.090250 55.667750
16933 1 32.586000 38.017000 59.741000
16934 1 32.586000 40.732500 62.456500
16935 1 35.301500 38.017000 62.456500
16936 1 35.301500 40.732500 59.741000
16937 1 33.943750 39.374750 61.098750
16938 1 33.943750 42.090250 63.814250
16939 1 36.659250 39.374750 63.814250
16940 1 36.659250 42.090250 61.098750
16941 1 32.586000 38.017000 65.172000
16942 1 32.586000 40.732500 67.887500
16943 1 35.301500 38.017000 67.887500
16944 1 35.301500 40.732500 65.172000
16945 1 33.943750 39.374750 66.529750
16946 1 33.943750 42.090250 69.245250
16947 1 36.659250 39.374750 69.245250
16948 1 36.659250 42.090250 66.529750
16949 1 32.586000 38.017000 70.603000
16950 1 32.586000 40.732500 73.318500
16951 1 35.301500 38.017000 73.318500
16952 1 35.301500 40.732500 70.603000
16953 1 33.943750 39.374750 71.960750
16954 1 33.943750 42.090250 74.676250
16955 1 36.659250 39.374750 74.676250
16956 1 36.659250 42.090250 71.960750
16957 1 32.586000 38.017000 76.034000
16958 1 32.586000 40.732500 78.749500
16959 1 35.301500 38.017000 78.749500
16960 1 35.301500 40.732500 76.034000
16961 1 33.943750 39.374750 77.391750
16962 1 33.943750 42.090250 80.107250
16963 1 36.659250 39.374750 80.107250
16964 1 36.659250 42.090250 77.391750
16965 1 32.586000 38.017000 81.465000
16966 1 32.586000 40.732500 84.180500
16967 1 35.301500 38.017000 84.180500
16968 1 35.301500 40.732500 81.465000
16969 1 33.943750 39.374750 82.822750
16970 1 33.943750 42.090250 85.538250
16971 1 36.659250 39.374750 85.538250
16972 1 36.659250 42.090250 82.822750
16973 1 32.586000 38.017000 86.896000
16974 1 32.586000 40.732500 89.611500
16975 1 35.301500 38.017000 89.611500
16976 1 35.301500 40.732500 86.896000
16977 1 33.943750 39.374750 88.253750
16978 1 33.943750 42.090250 90.969250
16979 1 36.659250 39.374750 90.969250
16980 1 36.659250 42.090250 88.253750
16981 1 32.586000 38.017000 92.327000
16982 1 32.586000 40.732500 95.042500
16983 1 35.301500 38.017000 95.042500
16984 1 35.301500 40.732500 92.327000
16985 1 33.943750 39.374750 93.684750
16986 1 33.943750 42.090250 96.400250
16987 1 36.659250 39.374750 96.400250
16988 1 36.659250 42.090250 93.684750
16989 1 32.586000 38.017000 97.758000
16990 1 32.586000 40.732500 100.473500
16991 1 35.301500 38.017000 100.473500
16992 1 35.301500 40.732500 97.758000
16993 1 33.943750 39.374750 99.115750
16994 1 33.943750 42.090250 101.831250
16995 1 36.659250 39.374750 101.831250
16996 1 36.659250 42.090250 99.115750
16997 1 32.586000 38.017000 103.189000
16998 1 32.586000 40.732500 105.904500
16999 1 35.301500 38.017000 105.904500
17000 1 35.301500 40.732500 103.189000
17001 1 33.943750 39.374750 104.546750
17002 1 33.943750 42.090250 107.262250
17003 1 36.659250 39.374750 107.262250
17004 1 36.659250 42.090250 104.546750
17005 1 32.586000 38.017000 108.620000
17006 1 32.586000 40.732500 111.335500
17007 1 35.301500 38.017000 111.335500
17008 1 35.301500 40.732500 108.620000
17009 1 33.943750 39.374750 109.977750
17010 1 33.943750 42.090250 112.693250
17011 1 36.659250 39.374750 112.693250
17012 1 36.659250 42.090250 109.977750
17013 1 32.586000 38.017000 114.051000
17014 1 32.586000 40.732500 116.766500
17015 1 35.301500 38.017000 116.766500
17016 1 35.301500 40.732500 114.051000
17017 1 33.943750 39.374750 115.408750
17018 1 33.943750 42.090250 118.124250
17019 1 36.659250 39.374750 118.124250
17020 1 36.659250 42.090250 115.408750
17021 1 32.586000 38.017000 119.482000
17022 1 32.586000 40.732500 122.197500
17023 1 35.301500 38.017000 122.197500
17024 1 35.301500 40.732500 119.482000
17025 1 33.943750 39.374750 120.839750
17026 1 33.943750 42.090250 123.555250
17027 1 36.659250 39.374750 123.555250
17028 1 36.659250 42.090250 120.839750
17029 1 32.586000 38.017000 124.913000
17030 1 32.586000 40.732500 127.628500
17031 1 35.301500 38.017000 127.628500
17032 1 35.301500 40.732500 124.913000
17033 1 33.943750 39.374750 126.270750
17034 1 33.943750 42.090250 128.986250
17035 1 36.659250 39.374750 128.986250
17036 1 36.659250 42.090250 126.270750
17037 1 32.586000 38.017000 130.344000
17038 1 32.586000 40.732500 133.059500
17039 1 35.301500 38.017000 133.059500
17040 1 35.301500 40.732500 130.344000
17041 1 33.943750 39.374750 131.701750
17042 1 33.943750 42.090250 134.417250
17043 1 36.659250 39.374750 134.417250
17044 1 36.659250 42.090250 131.701750
17045 1 32.586000 38.017000 135.775000
17046 1 32.586000 40.732500 138.490500
17047 1 35.301500 38.017000 138.490500
17048 1 35.301500 40.732500 135.775000
17049 1 33.943750 39.374750 137.132750
17050 1 33.943750 42.090250 139.848250
17051 1 36.659250 39.374750 139.848250
17052 1 36.659250 42.090250 137.132750
17053 1 32.586000 38.017000 141.206000
17054 1 32.586000 40.732500 143.921500
17055 1 35.301500 38.017000 143.921500
17056 1 35.301500 40.732500 141.206000
17057 1 33.943750 39.374750 142.563750
17058 1 33.943750 42.090250 145.279250
17059 1 36.659250 39.374750 145.279250
17060 1 36.659250 42.090250 142.563750
17061 1 32.586000 38.017000 146.637000
17062 1 32.586000 40.732500 149.352500
17063 1 35.301500 38.017000 149.352500
17064 1 35.301500 40.732500 146.637000
17065 1 33.943750 39.374750 147.994750
17066 1 33.943750 42.090250 150.710250
17067 1 36.659250 39.374750 150.710250
17068 1 36.659250 42.090250 147.994750
17069 1 32.586000 38.017000 152.068000
17070 1 32.586000 40.732500 154.783500
17071 1 35.301500 38.017000 154.783500
17072 1 35.301500 40.732500 152.068000
17073 1 33.943750 39.374750 153.425750
17074 1 33.943750 42.090250 156.141250
17075 1 36.659250 39.374750 156.141250
17076 1 36.659250 42.090250 153.425750
17077 1 32.586000 38.017000 157.499000
17078 1 32.586000 40.732500 160.214500
17079 1 35.301500 38.017000 160.214500
17080 1 35.301500 40.732500 157.499000
17081 1 33.943750 39.374750 158.856750
17082 1 33.943750 42.090250 161.572250
17083 1 36.659250 39.374750 161.572250
17084 1 36.659250 42.090250 158.856750
17085 1 32.586000 38.017000 162.930000
17086 1 32.586000 40.732500 165.645500
17087 1 35.301500 38.017000 165.645500
17088 1 35.301500 40.732500 162.930000
17089 1 33.943750 39.374750 164.287750
17090 1 33.943750 42.090250 167.003250
17091 1 36.659250 39.374750 167.003250
17092 1 36.659250 42.090250 164.287750
17093 1 32.586000 38.017000 168.361000
17094 1 32.586000 40.732500 171.076500
17095 1 35.301500 38.017000 171.076500
17096 1 35.301500 40.732500 168.361000
17097 1 33.943750 39.374750 169.718750
17098 1 33.943750 42.090250 172.434250
17099 1 36.659250 39.374750 172.434250
17100 1 36.659250 42.090250 169.718750
17101 1 32.586000 38.017000 173.792000
17102 1 32.586000 40.732500 176.507500
17103 1 35.301500 38.017000 176.507500
17104 1 35.301500 40.732500 173.792000
17105 1 33.943750 39.374750 175.149750
17106 1 33.943750 42.090250 177.865250
17107 1 36.659250 39.374750 177.865250
17108 1 36.659250 42.090250 175.149750
17109 1 32.586000 38.017000 179.223000
17110 1 32.586000 40.732500 181.938500
17111 1 35.301500 38.017000 181.938500
17112 1 35.301500 40.732500 179.223000
17113 1 33.943750 39.374750 180.580750
17114 1 33.943750 42.090250 183.296250
17115 1 36.659250 39.374750 183.296250
17116 1 36.659250 42.090250 180.580750
17117 1 32.586000 38.017000 184.654000
17118 1 32.586000 40.732500 187.369500
17119 1 35.301500 38.017000 187.369500
17120 1 35.301500 40.732500 184.654000
17121 1 33.943750 39.374750 186.011750
17122 1 33.943750 42.090250 188.727250
17123 1 36.659250 39.374750 188.727250
17124 1 36.659250 42.090250 186.011750
17125 1 32.586000 38.017000 190.085000
17126 1 32.586000 40.732500 192.800500
17127 1 35.301500 38.017000 192.800500
17128 1 35.301500 40.732500 190.085000
17129 1 33.943750 39.374750 191.442750
17130 1 33.943750 42.090250 194.158250
17131 1 36.659250 39.374750 194.158250
17132 1 36.659250 42.090250 191.442750
17133 1 32.586000 38.017000 195.516000
17134 1 32.586000 40.732500 198.231500
17135 1 35.301500 38.017000 198.231500
17136 1 35.301500 40.732500 195.516000
17137 1 33.943750 39.374750 196.873750
17138 1 33.943750 42.090250 199.589250
17139 1 36.659250 39.374750 199.589250
17140 1 36.659250 42.090250 196.873750
17141 1 32.586000 38.017000 200.947000
17142 1 32.586000 40.732500 203.662500
17143 1 35.301500 38.017000 203.662500
17144 1 35.301500 40.732500 200.947000
17145 1 33.943750 39.374750 202.304750
17146 1 33.943750 42.090250 205.020250
17147 1 36.659250 39.374750 205.020250
17148 1 36.659250 42.090250 202.304750
17149 1 32.586000 38.017000 206.378000
17150 1 32.586000 40.732500 209.093500
17151 1 35.301500 38.017000 209.093500
17152 1 35.301500 40.732500 206.378000
17153 1 33.943750 39.374750 207.735750
17154 1 33.943750 42.090250 210.451250
17155 1 36.659250 39.374750 210.451250
17156 1 36.659250 42.090250 207.735750
17157 1 32.586000 38.017000 211.809000
17158 1 32.586000 40.732500 214.524500
17159 1 35.301500 38.017000 214.524500
17160 1 35.301500 40.732500 211.809000
17161 1 33.943750 39.374750 213.166750
17162 1 33.943750 42.090250 215.882250
17163 1 36.659250 39.374750 215.882250
17164 1 36.659250 42.090250 213.166750
17165 1 32.586000 38.017000 217.240000
17166 1 32.586000 40.732500 219.955500
17167 1 35.301500 38.017000 219.955500
17168 1 35.301500 40.732500 217.240000
17169 1 33.943750 39.374750 218.597750
17170 1 33.943750 42.090250 221.313250
17171 1 36.659250 39.374750 221.313250
17172 1 36.659250 42.090250 218.597750
17173 1 32.586000 38.017000 222.671000
17174 1 32.586000 40.732500 225.386500
17175 1 35.301500 38.017000 225.386500
17176 1 35.301500 40.732500 222.671000
17177 1 33.943750 39.374750 224.028750
17178 1 33.943750 42.090250 226.744250
17179 1 36.659250 39.374750 226.744250
17180 1 36.659250 42.090250 224.028750
17181 1 32.586000 38.017000 228.102000
17182 1 32.586000 40.732500 230.817500
17183 1 35.301500 38.017000 230.817500
17184 1 35.301500 40.732500 228.102000
17185 1 33.943750 39.374750 229.459750
17186 1 33.943750 42.090250 232.175250
17187 1 36.659250 39.374750 232.175250
17188 1 36.659250 42.090250 229.459750
17189 1 32.586000 38.017000 233.533000
17190 1 32.586000 40.732500 236.248500
17191 1 35.301500 38.017000 236.248500
17192 1 35.301500 40.732500 233.533000
17193 1 33.943750 39.374750 234.890750
17194 1 33.943750 42.090250 237.606250
17195 1 36.659250 39.374750 237.606250
17196 1 36.659250 42.090250 234.890750
17197 1 32.586000 38.017000 238.964000
17198 1 32.586000 40.732500 241.679500
17199 1 35.301500 38.017000 241.679500
17200 1 35.301500 40.732500 238.964000
17201 1 33.943750 39.374750 240.321750
17202 1 33.943750 42.090250 243.037250
17203 1 36.659250 39.374750 243.037250
17204 1 36.659250 42.090250 240.321750
17205 1 32.586000 38.017000 244.395000
17206 1 32.586000 40.732500 247.110500
17207 1 35.301500 38.017000 247.110500
17208 1 35.301500 40.732500 244.395000
17209 1 33.943750 39.374750 245.752750
17210 1 33.943750 42.090250 248.468250
17211 1 36.659250 39.374750 248.468250
17212 1 36.659250 42.090250 245.752750
17213 1 32.586000 38.017000 249.826000
17214 1 32.586000 40.732500 252.541500
17215 1 35.301500 38.017000 252.541500
17216 1 35.301500 40.732500 249.826000
17217 1 33.943750 39.374750 251.183750
17218 1 33.943750 42.090250 253.899250
17219 1 36.659250 39.374750 253.899250
17220 1 36.659250 42.090250 251.183750
17221 1 32.586000 38.017000 255.257000
17222 1 32.586000 40.732500 257.972500
17223 1 35.301500 38.017000 257.972500
17224 1 35.301500 40.732500 255.257000
17225 1 33.943750 39.374750 256.614750
17226 1 33.943750 42.090250 259.330250
17227 1 36.659250 39.374750 259.330250
17228 1 36.659250 42.090250 256.614750
17229 1 38.017000 0.000000 0.000000
17230 1 38.017000 2.715500 2.715500
17231 1 40.732500 0.000000 2.715500
17232 1 40.732500 2.715500 0.000000
17233 1 39.374750 1.357750 1.357750
17234 1 39.374750 4.073250 4.073250
17235 1 42.090250 1.357750 4.073250
17236 1 42.090250 4.073250 1.357750
17237 1 38.017000 0.000000 5.431000
17238 1 38.017000 2.715500 8.146500
17239 1 40.732500 0.000000 8.146500
17240 1 40.732500 2.715500 5.431000
17241 1 39.374750 1.357750 6.788750
17242 1 39.374750 4.073250 9.504250
17243 1 42.090250 1.357750 9.504250
17244 1 42.090250 4.073250 6.788750
17245 1 38.017000 0.000000 10.862000
17246 1 38.017000 2.715500 13.577500
17247 1 40.732500 0.000000 13.577500
17248 1 40.732500 2.715500 10.862000
17249 1 39.374750 1.357750 12.219750
17250 1 39.374750 4.073250 14.935250
17251 1 42.090250 1.357750 14.935250
17252 1 42.090250 4.073250 12.219750
17253 1 38.017000 0.000000 16.293000
17254 1 38.017000 2.715500 19.008500
17255 1 40.732500 0.000000 19.008500
17256 1 40.732500 2.715500 16.293000
17257 1 39.374750 1.357750 17.650750
17258 1 39.374750 4.073250 20.366250
17259 1 42.090250 1.357750 20.366250
17260 1 42.090250 4.073250 17.650750
17261 1 38.017000 0.000000 21.724000
17262 1 38.017000 2.715500 24.439500
17263 1 40.732500 0.000000 24.439500
17264 1 40.732500 2.715500 21.724000
17265 1 39.374750 1.357750 23.081750
17266 1 39.374750 4.073250 25.797250
17267 1 42.090250 1.357750 25.797250
17268 1 42.090250 4.073250 23.081750
17269 1 38.017000 0.000000 27.155000
17270 1 38.017000 2.715500 29.870500
17271 1 40.732500 0.000000 29.870500
17272 1 40.732500 2.715500 27.155000
17273 1 39.374750 1.357750 28.512750
17274 1 39.374750 4.073250 31.228250
17275 1 42.090250 1.357750 31.228250
17276 1 42.090250 4.073250 28.512750
17277 1 38.017000 0.000000 32.586000
17278 1 38.017000 2.715500 35.301500
17279 1 40.732500 0.000000 35.301500
17280 1 40.732500 2.715500 32.586000
17281 1 39.374750 1.357750 33.943750
17282 1 39.374750 4.073250 36.659250
17283 1 42.090250 1.357750 36.659250
17284 1 42.090250 4.073250 33.943750
17285 1 38.017000 0.000000 38.017000
17286 1 38.017000 2.715500 40.732500
17287 1 40.732500 0.000000 40.732500
17288 1 40.732500 2.715500 38.017000
17289 1 39.374750 1.357750 39.374750
17290 1 39.374750 4.073250 42.090250
17291 1 42.090250 1.357750 42.090250
17292 1 42.090250 4.073250 39.374750
17293 1 38.017000 0.000000 43.448000
17294 1 38.017000 2.715500 46.163500
17295 1 40.732500 0.000000 46.163500
17296 1 40.732500 2.715500 43.448000
17297 1 39.374750 1.357750 44.805750
17298 1 39.374750 4.073250 47.521250
17299 1 42.090250 1.357750 47.521250
17300 1 42.090250 4.073250 44.805750
17301 1 38.017000 0.000000 48.879000
17302 1 38.017000 2.715500 51.594500
17303 1 40.732500 0.000000 51.594500
17304 1 40.732500 2.715500 48.879000
17305 1 39.374750 1.357750 50.236750
17306 1 39.374750 4.073250 52.952250
17307 1 42.090250 1.357750 52.952250
17308 1 42.090250 4.073250 50.236750
17309 1 38.017000 0.000000 54.310000
17310 1 38.017000 2.715500 57.025500
17311 1 40.732500 0.000000 57.025500
17312 1 40.732500 2.715500 54.310000
17313 1 39.374750 1.357750 55.667750
17314 1 39.374750 4.073250 58.383250
17315 1 42.090250 1.357750 58.383250
17316 1 42.090250 4.073250 55.667750
17317 1 38.017000 0.000000 59.741000
17318 1 38.017000 2.715500 62.456500
17319 1 40.732500 0.000000 62.456500
17320 1 40.732500 2.715500 59.741000
17321 1 39.374750 1.357750 61.098750
17322 1 39.374750 4.073250 63.814250
17323 1 42.090250 1.357750 63.814250
17324 1 42.090250 4.073250 61.098750
17325 1 38.017000 0.000000 65.172000
17326 1 38.017000 2.715500 67.887500
17327 1 40.732500 0.000000 67.887500
17328 1 40.732500 2.715500 65.172000
17329 1 39.374750 1.357750 66.529750
17330 1 39.374750 4.073250 69.245250
17331 1 42.090250 1.357750 69.245250
17332 1 42.090250 4.073250 66.529750
17333 1 38.017000 0.000000 70.603000
17334 1 38.017000 2.715500 73.318500
17335 1 40.732500 0.000000 73.318500
17336 1 40.732500 2.715500 70.603000
17337 1 39.374750 1.357750 71.960750
17338 1 39.374750 4.073250 74.676250
17339 1 42.090250 1.357750 74.676250
17340 1 42.090250 4.073250 71.960750
17341 1 38.017000 0.000000 76.034000
17342 1 38.017000 2.715500 78.749500
17343 1 40.732500 0.000000 78.749500
17344 1 40.732500 2.715500 76.034000
17345 1 39.374750 1.357750 77.391750
17346 1 39.374750 4.073250 80.107250
17347 1 42.090250 1.357750 80.107250
17348 1 42.090250 4.073250 77.391750
17349 1 38.017000 0.000000 81.465000
17350 1 38.017000 2.715500 84.180500
17351 1 40.732500 0.000000 84.180500
17352 1 40.732500 2.715500 81.465000
17353 1 39.374750 1.357750 82.822750
17354 1 39.374750 4.073250 85.538250
17355 1 42.090250 1.357750 85.538250
17356 1 42.090250 4.073250 82.822750
17357 1 38.017000 0.000000 86.896000
17358 1 38.017000 2.715500 89.611500
17359 1 40.732500 0.000000 89.611500
17360 1 40.732500 2.715500 86.896000
17361 1 39.374750 1.357750 88.253750
17362 1 39.374750 4.073250 90.969250
17363 1 42.090250 1.357750 90.969250
17364 1 42.090250 4.073250 88.253750
17365 1 38.017000 0.000000 92.327000
17366 1 38.017000 2.715500 95.042500
17367 1 40.732500 0.000000 95.042500
17368 1 40.732500 2.715500 92.327000
17369 1 39.374750 1.357750 93.684750
17370 1 39.374750 4.073250 96.400250
17371 1 42.090250 1.357750 96.400250
17372 1 42.090250 4.073250 93.684750
17373 1 38.017000 0.000000 97.758000
17374 1 38.017000 2.715500 100.473500
17375 1 40.732500 0.000000 100.473500
17376 1 40.732500 2.715500 97.758000
17377 1 39.374750 1.357750 99.115750
17378 1 39.374750 4.073250 101.831250
17379 1 42.090250 1.357750 101.831250
17380 1 42.090250 4.073250 99.115750
17381 1 38.017000 0.000000 103.189000
17382 1 38.017000 2.715500 105.904500
17383 1 40.732500 0.000000 105.904500
17384 1 40.732500 2.715500 103.189000
17385 1 39.374750 1.357750 104.546750
17386 1 39.374750 4.073250 107.262250
17387 1 42.090250 1.357750 107.262250
17388 1 42.090250 4.073250 104.546750
17389 1 38.017000 0.000000 108.620000
17390 1 38.017000 2.715500 111.335500
17391 1 40.732500 0.000000 111.335500
17392 1 40.732500 2.715500 108.620000
17393 1 39.374750 1.357750 109.977750
17394 1 39.374750 4.073250 112.693250
17395 1 42.090250 1.357750 112.693250
17396 1 42.090250 4.073250 109.977750
17397 1 38.017000 0.000000 114.051000
17398 1 38.017000 2.715500 116.766500
17399 1 40.732500 0.000000 116.766500
17400 1 40.732500 2.715500 114.051000
17401 1 39.374750 1.357750 115.408750
17402 1 39.374750 4.073250 118.124250
17403 1 42.090250 1.357750 118.124250
17404 1 42.090250 4.073250 115.408750
17405 1 38.017000 0.000000 119.482000
17406 1 38.017000 2.715500 122.197500
17407 1 40.732500 0.000000 122.197500
17408 1 40.732500 2.715500 119.482000
17409 1 39.374750 1.357750 120.839750
17410 1 39.374750 4.073250 123.555250
17411 1 42.090250 1.357750 123.555250
17412 1 42.090250 4.073250 120.839750
17413 1 38.017000 0.000000 124.913000
17414 1 38.017000 2.715500 127.628500
17415 1 40.732500 0.000000 127.628500
17416 1 40.732500 2.715500 124.913000
17417 1 39.374750 1.357750 126.270750
17418 1 39.374750 4.073250 128.986250
17419 1 42.090250 1.357750 128.986250
17420 1 42.090250 4.073250 126.270750
17421 1 38.017000 0.000000 130.344000
17422 1 38.017000 2.715500 133.059500
17423 1 40.732500 0.000000 133.059500
17424 1 40.732500 2.715500 130.344000
17425 1 39.374750 1.357750 131.701750
17426 1 39.374750 4.073250 134.417250
17427 1 42.090250 1.357750 134.417250
17428 1 42.090250 4.073250 131.701750
17429 1 38.017000 0.000000 135.775000
17430 1 38.017000 2.715500 138.490500
17431 1 40.732500 0.000000 138.490500
17432 1 40.732500 2.715500 135.775000
17433 1 39.374750 1.357750 137.132750
17434 1 39.374750 4.073250 139.848250
17435 1 42.090250 1.357750 139.848250
17436 1 42.090250 4.073250 137.132750
17437 1 38.017000 0.000000 141.206000
17438 1 38.017000 2.715500 143.921500
17439 1 40.732500 0.000000 143.921500
17440 1 40.732500 2.715500 141.206000
17441 1 39.374750 1.357750 142.563750
17442 1 39.374750 4.073250 145.279250
17443 1 42.090250 1.357750 145.279250
17444 1 42.090250 4.073250 142.563750
17445 1 38.017000 0.000000 146.637000
17446 1 38.017000 2.715500 149.352500
17447 1 40.732500 0.000000 149.352500
17448 1 40.732500 2.715500 146.637000
17449 1 39.374750 1.357750 147.994750
17450 1 39.374750 4.073250 150.710250
17451 1 42.090250 1.357750 150.710250
17452 1 42.090250 4.073250 147.994750
17453 1 38.017000 0.000000 152.068000
17454 1 38.017000 2.715500 154.783500
17455 1 40.732500 0.000000 154.783500
17456 1 40.732500 2.715500 152.068000
17457 1 39.374750 1.357750 153.425750
17458 1 39.374750 4.073250 156.141250
17459 1 42.090250 1.357750 156.141250
17460 1 42.090250 4.073250 153.425750
17461 1 38.017000 0.000000 157.499000
17462 1 38.017000 2.715500 160.214500
17463 1 40.732500 0.000000 160.214500
17464 1 40.732500 2.715500 157.499000
17465 1 39.374750 1.357750 158.856750
17466 1 39.374750 4.073250 161.572250
17467 1 42.090250 1.357750 161.572250
17468 1 42.090250 4.073250 158.856750
17469 1 38.017000 0.000000 162.930000
17470 1 38.017000 2.715500 165.645500
17471 1 40.732500 0.000000 165.645500
17472 1 40.732500 2.715500 162.930000
17473 1 39.374750 1.357750 164.287750
17474 1 39.374750 4.073250 167.003250
17475 1 42.090250 1.357750 167.003250
17476 1 42.090250 4.073250 164.287750
17477 1 38.017000 0.000000 168.361000
17478 1 38.017000 2.715500 171.076500
17479 1 40.732500 0.000000 171.076500
17480 1 40.732500 2.715500 168.361000
17481 1 39.374750 1.357750 169.718750
17482 1 39.374750 4.073250 172.434250
17483 1 42.090250 1.357750 172.434250
17484 1 42.090250 4.073250 169.718750
17485 1 38.017000 0.000000 173.792000
17486 1 38.017000 2.715500 176.507500
17487 1 40.732500 0.000000 176.507500
17488 1 40.732500 2.715500 173.792000
17489 1 39.374750 1.357750 175.149750
17490 1 39.374750 4.073250 177.865250
17491 1 42.090250 1.357750 177.865250
17492 1 42.090250 4.073250 175.149750
17493 1 38.017000 0.000000 179.223000
17494 1 38.017000 2.715500 181.938500
17495 1 40.732500 0.000000 181.938500
17496 1 40.732500 2.715500 179.223000
17497 1 39.374750 1.357750 180.580750
17498 1 39.374750 4.073250 183.296250
17499 1 42.090250 1.357750 183.296250
17500 1 42.090250 4.073250 180.580750
17501 1 38.017000 0.000000 184.654000
17502 1 38.017000 2.715500 187.369500
17503 1 40.732500 0.000000 187.369500
17504 1 40.732500 2.715500 184.654000
17505 1 39.374750 1.357750 186.011750
17506 1 39.374750 4.073250 188.727250
17507 1 42.090250 1.357750 188.727250
17508 1 42.090250 4.073250 186.011750
17509 1 38.017000 0.000000 190.085000
17510 1 38.017000 2.715500 192.800500
17511 1 40.732500 0.000000 192.800500
17512 1 40.732500 2.715500 190.085000
17513 1 39.374750 1.357750 191.442750
17514 1 39.374750 4.073250 194.158250
17515 1 42.090250 1.357750 194.158250
17516 1 42.090250 4.073250 191.442750
17517 1 38.017000 0.000000 195.516000
17518 1 38.017000 2.715500 198.231500
17519 1 40.732500 0.000000 198.231500
17520 1 40.732500 2.715500 195.516000
17521 1 39.374750 1.357750 196.873750
17522 1 39.374750 4.073250 199.589250
17523 1 42.090250 1.357750 199.589250
17524 1 42.090250 4.073250 196.873750
17525 1 38.017000 0.000000 200.947000
17526 1 38.017000 2.715500 203.662500
17527 1 40.732500 0.000000 203.662500
17528 1 40.732500 2.715500 200.947000
17529 1 39.374750 1.357750 202.304750
17530 1 39.374750 4.073250 205.020250
17531 1 42.090250 1.357750 205.020250
17532 1 42.090250 4.073250 202.304750
17533 1 38.017000 0.000000 206.378000
17534 1 38.017000 2.715500 209.093500
17535 1 40.732500 0.000000 209.093500
17536 1 40.732500 2.715500 206.378000
17537 1 39.374750 1.357750 207.735750
17538 1 39.374750 4.073250 210.451250
17539 1 42.090250 1.357750 210.451250
17540 1 42.090250 4.073250 207.735750
17541 1 38.017000 0.000000 211.809000
17542 1 38.017000 2.715500 214.524500
17543 1 40.732500 0.000000 214.524500
17544 1 40.732500 2.715500 211.809000
17545 1 39.374750 1.357750 213.166750
17546 1 39.374750 4.073250 215.882250
17547 1 42.090250 1.357750 215.882250
17548 1 42.090250 4.073250 213.166750
17549 1 38.017000 0.000000 217.240000
17550 1 38.017000 2.715500 219.955500
17551 1 40.732500 0.000000 219.955500
17552 1 40.732500 2.715500 217.240000
17553 1 39.374750 1.357750 218.597750
17554 1 39.374750 4.073250 221.313250
17555 1 42.090250 1.357750 221.313250
17556 1 42.090250 4.073250 218.597750
17557 1 38.017000 0.000000 222.671000
17558 1 38.017000 2.715500 225.386500
17559 1 40.732500 0.000000 225.386500
17560 1 40.732500 2.715500 222.671000
17561 1 39.374750 1.357750 224.028750
17562 1 39.374750 4.073250 226.744250
17563 1 42.090250 1.357750 226.744250
17564 1 42.090250 4.073250 224.028750
17565 1 38.017000 0.000000 228.102000
17566 1 38.017000 2.715500 230.817500
17567 1 40.732500 0.000000 230.817500
17568 1 40.732500 2.715500 228.102000
17569 1 39.374750 1.357750 229.459750
17570 1 39.374750 4.073250 232.175250
17571 1 42.090250 1.357750 232.175250
17572 1 42.090250 4.073250 229.459750
17573 1 38.017000 0.000000 233.533000
17574 1 38.017000 2.715500 236.248500
17575 1 40.732500 0.000000 236.248500
17576 1 40.732500 2.715500 233.533000
17577 1 39.374750 1.357750 234.890750
17578 1 39.374750 4.073250 237.606250
17579 1 42.090250 1.357750 237.606250
17580 1 42.090250 4.073250 234.890750
17581 1 38.017000 0.000000 238.964000
17582 1 38.017000 2.715500 241.679500
17583 1 40.732500 0.000000 241.679500
17584 1 40.732500 2.715500 238.964000
17585 1 39.374750 1.357750 240.321750
17586 1 39.374750 4.073250 243.037250
17587 1 42.090250 1.357750 243.037250
17588 1 42.090250 4.073250 240.321750
17589 1 38.017000 0.000000 244.395000
17590 1 38.017000 2.715500 247.110500
17591 1 40.732500 0.000000 247.110500
17592 1 40.732500 2.715500 244.395000
17593 1 39.374750 1.357750 245.752750
17594 1 39.374750 4.073250 248.468250
17595 1 42.090250 1.357750 248.468250
17596 1 42.090250 4.073250 245.752750
17597 1 38.017000 0.000000 249.826000
17598 1 38.017000 2.715500 252.541500
17599 1 40.732500 0.000000 252.541500
17600 1 40.732500 2.715500 249.826000
17601 1 39.374750 1.357750 251.183750
17602 1 39.374750 4.073250 253.899250
17603 1 42.090250 1.357750 253.899250
17604 1 42.090250 4.073250 251.183750
17605 1 38.017000 0.000000 255.257000
17606 1 38.017000 2.715500 257.972500
17607 1 40.732500 0.000000 257.972500
17608 1 40.732500 2.715500 255.257000
17609 1 39.374750 1.357750 256.614750
17610 1 39.374750 4.073250 259.330250
17611 1 42.090250 1.357750 259.330250
17612 1 42.090250 4.073250 256.614750
17613 1 38.017000 5.431000 0.000000
17614 1 38.017000 8.146500 2.715500
17615 1 40.732500 5.431000 2.715500
17616 1 40.732500 8.146500 0.000000
17617 1 39.374750 6.788750 1.357750
17618 1 39.374750 9.504250 4.073250
17619 1 42.090250 6.788750 4.073250
17620 1 42.090250 9.504250 1.357750
17621 1 38.017000 5.431000 5.431000
17622 1 38.017000 8.146500 8.146500
17623 1 40.732500 5.431000 8.146500
17624 1 40.732500 8.146500 5.431000
17625 1 39.374750 6.788750 6.788750
17626 1 39.374750 9.504250 9.504250
17627 1 42.090250 6.788750 9.504250
17628 1 42.090250 9.504250 6.788750
17629 1 38.017000 5.431000 10.862000
17630 1 38.017000 8.146500 13.577500
17631 1 40.732500 5.431000 13.577500
17632 1 40.732500 8.146500 10.862000
17633 1 39.374750 6.788750 12.219750
17634 1 39.374750 9.504250 14.935250
17635 1 42.090250 6.788750 14.935250
17636 1 42.090250 9.504250 12.219750
17637 1 38.017000 5.431000 16.293000
17638 1 38.017000 8.146500 19.008500
17639 1 40.732500 5.431000 19.008500
17640 1 40.732500 8.146500 16.293000
17641 1 39.374750 6.788750 17.650750
17642 1 39.374750 9.504250 20.366250
17643 1 42.090250 6.788750 20.366250
17644 1 42.090250 9.504250 17.650750
17645 1 38.017000 5.431000 21.724000
17646 1 38.017000 8.146500 24.439500
17647 1 40.732500 5.431000 24.439500
17648 1 40.732500 8.146500 21.724000
17649 1 39.374750 6.788750 23.081750
17650 1 39.374750 9.504250 25.797250
17651 1 42.090250 6.788750 25.797250
17652 1 42.090250 9.504250 23.081750
17653 1 38.017000 5.431000 27.155000
17654 1 38.017000 8.146500 29.870500
17655 1 40.732500 5.431000 29.870500
17656 1 40.732500 8.146500 27.155000
17657 1 39.374750 6.788750 28.512750
17658 1 39.374750 9.504250 31.228250
17659 1 42.090250 6.788750 31.228250
17660 1 42.090250 9.504250 28.512750
17661 1 38.017000 5.431000 32.586000
17662 1 38.017000 8.146500 35.301500
17663 1 40.732500 5.431000 35.301500
17664 1 40.732500 8.146500 32.586000
17665 1 39.374750 6.788750 33.943750
17666 1 39.374750 9.504250 36.659250
17667 1 42.090250 6.788750 36.659250
17668 1 42.090250 9.504250 33.943750
17669 1 38.017000 5.431000 38.017000
17670 1 38.017000 8.146500 40.732500
17671 1 40.732500 5.431000 40.732500
17672 1 40.732500 8.146500 38.017000
17673 1 39.374750 6.788750 39.374750
17674 1 39.374750 9.504250 42.090250
17675 1 42.090250 6.788750 42.090250
17676 1 42.090250 9.504250 39.374750
17677 1 38.017000 5.431000 43.448000
17678 1 38.017000 8.146500 46.163500
17679 1 40.732500 5.431000 46.163500
17680 1 40.732500 8.146500 43.448000
17681 1 39.374750 6.788750 44.805750
17682 1 39.374750 9.504250 47.521250
17683 1 42.090250 6.788750 47.521250
17684 1 42.090250 9.504250 44.805750
17685 1 38.017000 5.431000 48.879000
17686 1 38.017000 8.146500 51.594500
17687 1 40.732500 5.431000 51.594500
17688 1 40.732500 8.146500 48.879000
17689 1 39.374750 6.788750 50.236750
17690 1 39.374750 9.504250 52.952250
17691 1 42.090250 6.788750 52.952250
17692 1 42.090250 9.504250 50.236750
17693 1 38.017000 5.431000 54.310000
17694 1 38.017000 8.146500 57.025500
17695 1 40.732500 5.431000 57.025500
17696 1 40.732500 8.146500 54.310000
17697 1 39.374750 6.788750 55.667750
17698 1 39.374750 9.504250 58.383250
17699 1 42.090250 6.788750 58.383250
17700 1 42.090250 9.504250 55.667750
17701 1 38.017000 5.431000 59.741000
17702 1 38.017000 8.146500 62.456500
17703 1 40.732500 5.431000 62.456500
17704 1 40.732500 8.146500 59.741000
17705 1 39.374750 6.788750 61.098750
17706 1 39.374750 9.504250 63.814250
17707 1 42.090250 6.788750 63.814250
17708 1 42.090250 9.504250 61.098750
17709 1 38.017000 5.431000 65.172000
17710 1 38.017000 8.146500 67.887500
17711 1 40.732500 5.431000 67.887500
17712 1 40.732500 8.146500 65.172000
17713 1 39.374750 6.788750 66.529750
17714 1 39.374750 9.504250 69.245250
17715 1 42.090250 6.788750 69.245250
17716 1 42.090250 9.504250 66.529750
17717 1 38.017000 5.431000 70.603000
17718 1 38.017000 8.146500 73.318500
17719 1 40.732500 5.431000 73.318500
17720 1 40.732500 8.146500 70.603000
17721 1 39.374750 6.788750 71.960750
17722 1 39.374750 9.504250 74.676250
17723 1 42.090250 6.788750 74.676250
17724 1 42.090250 9.504250 71.960750
17725 1 38.017000 5.431000 76.034000
17726 1 38.017000 8.146500 78.749500
17727 1 40.732500 5.431000 78.749500
17728 1 40.732500 8.146500 76.034000
17729 1 39.374750 6.788750 77.391750
17730 1 39.374750 9.504250 80.107250
17731 1 42.090250 6.788750 80.107250
17732 1 42.090250 9.504250 77.391750
17733 1 38.017000 5.431000 81.465000
17734 1 38.017000 8.146500 84.180500
17735 1 40.732500 5.431000 84.180500
17736 1 40.732500 8.146500 81.465000
17737 1 39.374750 6.788750 82.822750
17738 1 39.374750 9.504250 85.538250
17739 1 42.090250 6.788750 85.538250
17740 1 42.090250 9.504250 82.822750
17741 1 38.017000 5.431000 86.896000
17742 1 38.017000 8.146500 89.611500
17743 1 40.732500 5.431000 89.611500
17744 1 40.732500 8.146500 86.896000
17745 1 39.374750 6.788750 88.253750
17746 1 39.374750 9.504250 90.969250
17747 1 42.090250 6.788750 90.969250
17748 1 42.090250 9.504250 88.253750
17749 1 38.017000 5.431000 92.327000
17750 1 38.017000 8.146500 95.042500
17751 1 40.732500 5.431000 95.042500
17752 1 40.732500 8.146500 92.327000
17753 1 39.374750 6.788750 93.684750
17754 1 39.374750 9.504250 96.400250
17755 1 42.090250 6.788750 96.400250
17756 1 42.090250 9.504250 93.684750
17757 1 38.017000 5.431000 97.758000
17758 1 38.017000 8.146500 100.473500
17759 1 40.732500 5.431000 100.473500
17760 1 40.732500 8.146500 97.758000
17761 1 39.374750 6.788750 99.115750
17762 1 39.374750 9.504250 101.831250
17763 1 42.090250 6.788750 101.831250
17764 1 42.090250 9.504250 99.115750
17765 1 38.017000 5.431000 103.189000
17766 1 38.017000 8.146500 105.904500
17767 1 40.732500 5.431000 105.904500
17768 1 40.732500 8.146500 103.189000
17769 1 39.374750 6.788750 104.546750
17770 1 39.374750 9.504250 107.262250
17771 1 42.090250 6.788750 107.262250
17772 1 42.090250 9.504250 104.546750
17773 1 38.017000 5.431000 108.620000
17774 1 38.017000 8.146500 111.335500
17775 1 40.732500 5.431000 111.335500
17776 1 40.732500 8.146500 108.620000
17777 1 39.374750 6.788750 109.977750
17778 1 39.374750 9.504250 112.693250
17779 1 42.090250 6.788750 112.693250
17780 1 42.090250 9.504250 109.977750
17781 1 38.017000 5.431000 114.051000
17782 1 38.017000 8.146500 116.766500
17783 1 40.732500 5.431000 116.766500
17784 1 40.732500 8.146500 114.051000
17785 1 39.374750 6.788750 115.408750
17786 1 39.374750 9.504250 118.124250
17787 1 42.090250 6.788750 118.124250
17788 1 42.090250 9.504250 115.408750
17789 1 38.017000 5.431000 119.482000
17790 1 38.017000 8.146500 122.197500
17791 1 40.732500 5.431000 122.197500
17792 1 40.732500 8.146500 119.482000
17793 1 39.374750 6.788750 120.839750
17794 1 39.374750 9.504250 123.555250
17795 1 42.090250 6.788750 123.555250
17796 1 42.090250 9.504250 120.839750
17797 1 38.017000 5.431000 124.913000
17798 1 38.017000 8.146500 127.628500
17799 1 40.732500 5.431000 127.628500
17800 1 40.732500 8.146500 124.913000
17801 1 39.374750 6.788750 126.270750
17802 1 39.374750 9.504250 128.986250
17803 1 42.090250 6.788750 128.986250
17804 1 42.090250 9.504250 126.270750
17805 1 38.017000 5.431000 130.344000
17806 1 38.017000 8.146500 133.059500
17807 1 40.732500 5.431000 133.059500
17808 1 40.732500 8.146500 130.344000
17809 1 39.374750 6.788750 131.701750
17810 1 39.374750 9.504250 134.417250
17811 1 42.090250 6.788750 134.417250
17812 1 42.090250 9.504250 131.701750
17813 1 38.017000 5.431000 135.775000
17814 1 38.017000 8.146500 138.490500
17815 1 40.732500 5.431000 138.490500
17816 1 40.732500 8.146500 135.775000
17817 1 39.374750 6.788750 137.132750
17818 1 39.374750 9.504250 139.848250
17819 1 42.090250 6.788750 139.848250
17820 1 42.090250 9.504250 137.132750
17821 1 38.017000 5.431000 141.206000
17822 1 38.017000 8.146500 143.921500
17823 1 40.732500 5.431000 143.921500
17824 1 40.732500 8.146500 141.206000
17825 1 39.374750 6.788750 142.563750
17826 1 39.374750 9.504250 145.279250
17827 1 42.090250 6.788750 145.279250
17828 1 42.090250 9.504250 142.563750
17829 1 38.017000 5.431000 146.637000
17830 1 38.017000 8.146500 149.352500
17831 1 40.732500 5.431000 149.352500
17832 1 40.732500 8.146500 146.637000
17833 1 39.374750 6.788750 147.994750
17834 1 39.374750 9.504250 150.710250
17835 1 42.090250 6.788750 150.710250
17836 1 42.090250 9.504250 147.994750
17837 1 38.017000 5.431000 152.068000
17838 1 38.017000 8.146500 154.783500
17839 1 40.732500 5.431000 154.783500
17840 1 40.732500 8.146500 152.068000
17841 1 39.374750 6.788750 153.425750
17842 1 39.374750 9.504250 156.141250
17843 1 42.090250 6.788750 156.141250
17844 1 42.090250 9.504250 153.425750
17845 1 38.017000 5.431000 157.499000
17846 1 38.017000 8.146500 160.214500
17847 1 40.732500 5.431000 160.214500
17848 1 40.732500 8.146500 157.499000
17849 1 39.374750 6.788750 158.856750
17850 1 39.374750 9.504250 161.572250
17851 1 42.090250 6.788750 161.572250
17852 1 42.090250 9.504250 158.856750
17853 1 38.017000 5.431000 162.930000
17854 1 38.017000 8.146500 165.645500
17855 1 40.732500 5.431000 165.645500
17856 1 40.732500 8.146500 162.930000
17857 1 39.374750 6.788750 164.287750
17858 1 39.374750 9.504250 167.003250
17859 1 42.090250 6.788750 167.003250
17860 1 42.090250 9.504250 164.287750
17861 1 38.017000 5.431000 168.361000
17862 1 38.017000 8.146500 171.076500
17863 1 40.732500 5.431000 171.076500
17864 1 40.732500 8.146500 168.361000
17865 1 39.374750 6.788750 169.718750
17866 1 39.374750 9.504250 172.434250
17867 1 42.090250 6.788750 172.434250
17868 1 42.090250 9.504250 169.718750
17869 1 38.017000 5.431000 173.792000
17870 1 38.017000 8.146500 176.507500
17871 1 40.732500 5.431000 176.507500
17872 1 40.732500 8.146500 173.792000
17873 1 39.374750 6.788750 175.149750
17874 1 39.374750 9.504250 177.865250
17875 1 42.090250 6.788750 177.865250
17876 1 42.090250 9.504250 175.149750
17877 1 38.017000 5.431000 179.223000
17878 1 38.017000 8.146500 181.938500
17879 1 40.732500 5.431000 181.938500
17880 1 40.732500 8.146500 179.223000
17881 1 39.374750 6.788750 180.580750
17882 1 39.374750 9.504250 183.296250
17883 1 42.090250 6.788750 183.296250
17884 1 42.090250 9.504250 180.580750
17885 1 38.017000 5.431000 184.654000
17886 1 38.017000 8.146500 187.369500
17887 1 40.732500 5.431000 187.369500
17888 1 40.732500 8.146500 184.654000
17889 1 39.374750 6.788750 186.011750
17890 1 39.374750 9.504250 188.727250
17891 1 42.090250 6.788750 188.727250
17892 1 42.090250 9.504250 186.011750
17893 1 38.017000 5.431000 190.085000
17894 1 38.017000 8.146500 192.800500
17895 1 40.732500 5.431000 192.800500
17896 1 40.732500 8.146500 190.085000
17897 1 39.374750 6.788750 191.442750
17898 1 39.374750 9.504250 194.158250
17899 1 42.090250 6.788750 194.158250
17900 1 42.090250 9.504250 191.442750
17901 1 38.017000 5.431000 195.516000
17902 1 38.017000 8.146500 198.231500
17903 1 40.732500 5.431000 198.231500
17904 1 40.732500 8.146500 195.516000
17905 1 39.374750 6.788750 196.873750
17906 1 39.374750 9.504250 199.589250
17907 1 42.090250 6.788750 199.589250
17908 1 42.090250 9.504250 196.873750
17909 1 38.017000 5.431000 200.947000
17910 1 38.017000 8.146500 203.662500
17911 1 40.732500 5.431000 203.662500
17912 1 40.732500 8.146500 200.947000
17913 1 39.374750 6.788750 202.304750
17914 1 39.374750 9.504250 205.020250
17915 1 42.090250 6.788750 205.020250
17916 1 42.090250 9.504250 202.304750
17917 1 38.017000 5.431000 206.378000
17918 1 38.017000 8.146500 209.093500
17919 1 40.732500 5.431000 209.093500
17920 1 40.732500 8.146500 206.378000
17921 1 39.374750 6.788750 207.735750
17922 1 39.374750 9.504250 210.451250
17923 1 42.090250 6.788750 210.451250
17924 1 42.090250 9.504250 207.735750
17925 1 38.017000 5.431000 211.809000
17926 1 38.017000 8.146500 214.524500
17927 1 40.732500 5.431000 214.524500
17928 1 40.732500 8.146500 211.809000
17929 1 39.374750 6.788750 213.166750
17930 1 39.374750 9.504250 215.882250
17931 1 42.090250 6.788750 215.882250
17932 1 42.090250 9.504250 213.166750
17933 1 38.017000 5.431000 217.240000
17934 1 38.017000 8.146500 219.955500
17935 1 40.732500 5.431000 219.955500
17936 1 40.732500 8.146500 217.240000
17937 1 39.374750 6.788750 218.597750
17938 1 39.374750 9.504250 221.313250
17939 1 42.090250 6.788750 221.313250
17940 1 42.090250 9.504250 218.597750
17941 1 38.017000 5.431000 222.671000
17942 1 38.017000 8.146500 225.386500
17943 1 40.732500 5.431000 225.386500
17944 1 40.732500 8.146500 222.671000
17945 1 39.374750 6.788750 224.028750
17946 1 39.374750 9.504250 226.744250
17947 1 42.090250 6.788750 226.744250
17948 1 42.090250 9.504250 224.028750
17949 1 38.017000 5.431000 228.102000
17950 1 38.017000 8.146500 230.817500
17951 1 40.732500 5.431000 230.817500
17952 1 40.732500 8.146500 228.102000
17953 1 39.374750 6.788750 229.459750
17954 1 39.374750 9.504250 232.175250
17955 1 42.090250 6.788750 232.175250
17956 1 42.090250 9.504250 229.459750
17957 1 38.017000 5.431000 233.533000
17958 1 38.017000 8.146500 236.248500
17959 1 40.732500 5.431000 236.248500
17960 1 40.732500 8.146500 233.533000
17961 1 39.374750 6.788750 234.890750
17962 1 39.374750 9.504250 237.606250
17963 1 42.090250 6.788750 237.606250
17964 1 42.090250 9.504250 234.890750
17965 1 38.017000 5.431000 238.964000
17966 1 38.017000 8.146500 241.679500
17967 1 40.732500 5.431000 241.679500
17968 1 40.732500 8.146500 238.964000
17969 1 39.374750 6.788750 240.321750
17970 1 39.374750 9.504250 243.037250
17971 1 42.090250 6.788750 243.037250
17972 1 42.090250 9.504250 240.321750
17973 1 38.017000 5.431000 244.395000
17974 1 38.017000 8.146500 247.110500
17975 1 40.732500 5.431000 247.110500
17976 1 40.732500 8.146500 244.395000
17977 1 39.374750 6.788750 245.752750
17978 1 39.374750 9.504250 248.468250
17979 1 42.090250 6.788750 248.468250
17980 1 42.090250 9.504250 245.752750
17981 1 38.017000 5.431000 249.826000
17982 1 38.017000 8.146500 252.541500
17983 1 40.732500 5.431000 252.541500
17984 1 40.732500 8.146500 249.826000
17985 1 39.374750 6.788750 251.183750
17986 1 39.374750 9.504250 253.899250
17987 1 42.090250 6.788750 253.899250
17988 1 42.090250 9.504250 251.183750
17989 1 38.017000 5.431000 255.257000
17990 1 38.017000 8.146500 257.972500
17991 1 40.732500 5.431000 257.972500
17992 1 40.732500 8.146500 255.257000
17993 1 39.374750 6.788750 256.614750
17994 1 39.374750 9.504250 259.330250
17995 1 42.090250 6.788750 259.330250
17996 1 42.090250 9.504250 256.614750
17997 1 38.017000 10.862000 0.000000
17998 1 38.017000 13.577500 2.715500
17999 1 40.732500 10.862000 2.715500
18000 1 40.732500 13.577500 0.000000
18001 1 39.374750 12.219750 1.357750
18002 1 39.374750 14.935250 4.073250
18003 1 42.090250 12.219750 4.073250
18004 1 42.090250 14.935250 1.357750
18005 1 38.017000 10.862000 5.431000
18006 1 38.017000 13.577500 8.146500
18007 1 40.732500 10.862000 8.146500
18008 1 40.732500 13.577500 5.431000
18009 1 39.374750 12.219750 6.788750
18010 1 39.374750 14.935250 9.504250
18011 1 42.090250 12.219750 9.504250
18012 1 42.090250 14.935250 6.788750
18013 1 38.017000 10.862000 10.862000
18014 1 38.017000 13.577500 13.577500
18015 1 40.732500 10.862000 13.577500
18016 1 40.732500 13.577500 10.862000
18017 1 39.374750 12.219750 12.219750
18018 1 39.374750 14.935250 14.935250
18019 1 42.090250 12.219750 14.935250
18020 1 42.090250 14.935250 12.219750
18021 1 38.017000 10.862000 16.293000
18022 1 38.017000 13.577500 19.008500
18023 1 40.732500 10.862000 19.008500
18024 1 40.732500 13.577500 16.293000
18025 1 39.374750 12.219750 17.650750
18026 1 39.374750 14.935250 20.366250
18027 1 42.090250 12.219750 20.366250
18028 1 42.090250 14.935250 17.650750
18029 1 38.017000 10.862000 21.724000
18030 1 38.017000 13.577500 24.439500
18031 1 40.732500 10.862000 24.439500
18032 1 40.732500 13.577500 21.724000
18033 1 39.374750 12.219750 23.081750
18034 1 39.374750 14.935250 25.797250
18035 1 42.090250 12.219750 25.797250
18036 1 42.090250 14.935250 23.081750
18037 1 38.017000 10.862000 27.155000
18038 1 38.017000 13.577500 29.870500
18039 1 40.732500 10.862000 29.870500
18040 1 40.732500 13.577500 27.155000
18041 1 39.374750 12.219750 28.512750
18042 1 39.374750 14.935250 31.228250
18043 1 42.090250 12.219750 31.228250
18044 1 42.090250 14.935250 28.512750
18045 1 38.017000 10.862000 32.586000
18046 1 38.017000 13.577500 35.301500
18047 1 40.732500 10.862000 35.301500
18048 1 40.732500 13.577500 32.586000
18049 1 39.374750 12.219750 33.943750
18050 1 39.374750 14.935250 36.659250
18051 1 42.090250 12.219750 36.659250
18052 1 42.090250 14.935250 33.943750
18053 1 38.017000 10.862000 38.017000
18054 1 38.017000 13.577500 40.732500
18055 1 40.732500 10.862000 40.732500
18056 1 40.732500 13.577500 38.017000
18057 1 39.374750 12.219750 39.374750
18058 1 39.374750 14.935250 42.090250
18059 1 42.090250 12.219750 42.090250
18060 1 42.090250 14.935250 39.374750
18061 1 38.017000 10.862000 43.448000
18062 1 38.017000 13.577500 46.163500
18063 1 40.732500 10.862000 46.163500
18064 1 40.732500 13.577500 43.448000
18065 1 39.374750 12.219750 44.805750
18066 1 39.374750 14.935250 47.521250
18067 1 42.090250 12.219750 47.521250
18068 1 42.090250 14.935250 44.805750
18069 1 38.017000 10.862000 48.879000
18070 1 38.017000 13.577500 51.594500
18071 1 40.732500 10.862000 51.594500
18072 1 40.732500 13.577500 48.879000
18073 1 39.374750 12.219750 50.236750
18074 1 39.374750 14.935250 52.952250
18075 1 42.090250 12.219750 52.952250
18076 1 42.090250 14.935250 50.236750
18077 1 38.017000 10.862000 54.310000
18078 1 38.017000 13.577500 57.025500
18079 1 40.732500 10.862000 57.025500
18080 1 40.732500 13.577500 54.310000
18081 1 39.374750 12.219750 55.667750
18082 1 39.374750 14.935250 58.383250
18083 1 42.090250 12.219750 58.383250
18084 1 42.090250 14.935250 55.667750
18085 1 38.017000 10.862000 59.741000
18086 1 38.017000 13.577500 62.456500
18087 1 40.732500 10.862000 62.456500
18088 1 40.732500 13.577500 59.741000
18089 1 39.374750 12.219750 61.098750
18090 1 39.374750 14.935250 63.814250
18091 1 42.090250 12.219750 63.814250
18092 1 42.090250 14.935250 61.098750
18093 1 38.017000 10.862000 65.172000
18094 1 38.017000 13.577500 67.887500
18095 1 40.732500 10.862000 67.887500
18096 1 40.732500 13.577500 65.172000
18097 1 39.374750 12.219750 66.529750
18098 1 39.374750 14.935250 69.245250
18099 1 42.090250 12.219750 69.245250
18100 1 42.090250 14.935250 66.529750
18101 1 38.017000 10.862000 70.603000
18102 1 38.017000 13.577500 73.318500
18103 1 40.732500 10.862000 73.318500
18104 1 40.732500 13.577500 70.603000
18105 1 39.374750 12.219750 71.960750
18106 1 39.374750 14.935250 74.676250
18107 1 42.090250 12.219750 74.676250
18108 1 42.090250 14.935250 71.960750
18109 1 38.017000 10.862000 76.034000
18110 1 38.017000 13.577500 78.749500
18111 1 40.732500 10.862000 78.749500
18112 1 40.732500 13.577500 76.034000
18113 1 39.374750 12.219750 77.391750
18114 1 39.374750 14.935250 80.107250
18115 1 42.090250 12.219750 80.107250
18116 1 42.090250 14.935250 77.391750
18117 1 38.017000 10.862000 81.465000
18118 1 38.017000 13.577500 84.180500
18119 1 40.732500 10.862000 84.180500
18120 1 40.732500 13.577500 81.465000
18121 1 39.374750 12.219750 82.822750
18122 1 39.374750 14.935250 85.538250
18123 1 42.090250 12.219750 85.538250
18124 1 42.090250 14.935250 82.822750
18125 1 38.017000 10.862000 86.896000
18126 1 38.017000 13.577500 89.611500
18127 1 40.732500 10.862000 89.611500
18128 1 40.732500 13.577500 86.896000
18129 1 39.374750 12.219750 88.253750
18130 1 39.374750 14.935250 90.969250
18131 1 42.090250 12.219750 90.969250
18132 1 42.090250 14.935250 88.253750
18133 1 38.017000 10.862000 92.327000
18134 1 38.017000 13.577500 95.042500
18135 1 40.732500 10.862000 95.042500
18136 1 40.732500 13.577500 92.327000
18137 1 39.374750 12.219750 93.684750
18138 1 39.374750 14.935250 96.400250
18139 1 42.090250 12.219750 96.400250
18140 1 42.090250 14.935250 93.684750
18141 1 38.017000 10.862000 97.758000
18142 1 38.017000 13.577500 100.473500
18143 1 40.732500 10.862000 100.473500
18144 1 40.732500 13.577500 97.758000
18145 1 39.374750 12.219750 99.115750
18146 1 39.374750 14.935250 101.831250
18147 1 42.090250 12.219750 101.831250
18148 1 42.090250 14.935250 99.115750
18149 1 38.017000 10.862000 103.189000
18150 1 38.017000 13.577500 105.904500
18151 1 40.732500 10.862000 105.904500
18152 1 40.732500 13.577500 103.189000
18153 1 39.374750 12.219750 104.546750
18154 1 39.374750 14.935250 107.262250
18155 1 42.090250 12.219750 107.262250
18156 1 42.090250 14.935250 104.546750
18157 1 38.017000 10.862000 108.620000
18158 1 38.017000 13.577500 111.335500
18159 1 40.732500 10.862000 111.335500
18160 1 40.732500 13.577500 108.620000
18161 1 39.374750 12.219750 109.977750
18162 1 39.374750 14.935250 112.693250
18163 1 42.090250 12.219750 112.693250
18164 1 42.090250 14.935250 109.977750
18165 1 38.017000 10.862000 114.051000
18166 1 38.017000 13.577500 116.766500
18167 1 40.732500 10.862000 116.766500
18168 1 40.732500 13.577500 114.051000
18169 1 39.374750 12.219750 115.408750
18170 1 39.374750 14.935250 118.124250
18171 1 42.090250 12.219750 118.124250
18172 1 42.090250 14.935250 115.408750
18173 1 38.017000 10.862000 119.482000
18174 1 38.017000 13.577500 122.197500
18175 1 40.732500 10.862000 122.197500
18176 1 40.732500 13.577500 119.482000
18177 1 39.374750 12.219750 120.839750
18178 1 39.374750 14.935250 123.555250
18179 1 42.090250 12.219750 123.555250
18180 1 42.090250 14.935250 120.839750
18181 1 38.017000 10.862000 124.913000
18182 1 38.017000 13.577500 127.628500
18183 1 40.732500 10.862000 127.628500
18184 1 40.732500 13.577500 124.913000
18185 1 39.374750 12.219750 126.270750
18186 1 39.374750 14.935250 128.986250
18187 1 42.090250 12.219750 128.986250
18188 1 42.090250 14.935250 126.270750
18189 1 38.017000 10.862000 130.344000
18190 1 38.017000 13.577500 133.059500
18191 1 40.732500 10.862000 133.059500
18192 1 40.732500 13.577500 130.344000
18193 1 39.374750 12.219750 131.701750
18194 1 39.374750 14.935250 134.417250
18195 1 42.090250 12.219750 134.417250
18196 1 42.090250 14.935250 131.701750
18197 1 38.017000 10.862000 135.775000
18198 1 38.017000 13.577500 138.490500
18199 1 40.732500 10.862000 138.490500
18200 1 40.732500 13.577500 135.775000
18201 1 39.374750 12.219750 137.132750
18202 1 39.374750 14.935250 139.848250
18203 1 42.090250 12.219750 139.848250
18204 1 42.090250 14.935250 137.132750
18205 1 38.017000 10.862000 141.206000
18206 1 38.017000 13.577500 143.921500
18207 1 40.732500 10.862000 143.921500
18208 1 40.732500 13.577500 141.206000
18209 1 39.374750 12.219750 142.563750
18210 1 39.374750 14.935250 145.279250
18211 1 42.090250 12.219750 145.279250
18212 1 42.090250 14.935250 142.563750
18213 1 38.017000 10.862000 146.637000
18214 1 38.017000 13.577500 149.352500
18215 1 40.732500 10.862000 149.352500
18216 1 40.732500 13.577500 146.637000
18217 1 39.374750 12.219750 147.994750
18218 1 39.374750 14.935250 150.710250
18219 1 42.090250 12.219750 150.710250
18220 1 42.090250 14.935250 147.994750
18221 1 38.017000 10.862000 152.068000
18222 1 38.017000 13.577500 154.783500
18223 1 40.732500 10.862000 154.783500
18224 1 40.732500 13.577500 152.068000
18225 1 39.374750 12.219750 153.425750
18226 1 39.374750 14.935250 156.141250
18227 1 42.090250 12.219750 156.141250
18228 1 42.090250 14.935250 153.425750
18229 1 38.017000 10.862000 157.499000
18230 1 38.017000 13.577500 160.214500
18231 1 40.732500 10.862000 160.214500
18232 1 40.732500 13.577500 157.499000
18233 1 39.374750 12.219750 158.856750
18234 1 39.374750 14.935250 161.572250
18235 1 42.090250 12.219750 161.572250
18236 1 42.090250 14.935250 158.856750
18237 1 38.017000 10.862000 162.930000
18238 1 38.017000 13.577500 165.645500
18239 1 40.732500 10.862000 165.645500
18240 1 40.732500 13.577500 162.930000
18241 1 39.374750 12.219750 164.287750
18242 1 39.374750 14.935250 167.003250
18243 1 42.090250 12.219750 167.003250
18244 1 42.090250 14.935250 164.287750
18245 1 38.017000 10.862000 168.361000
18246 1 38.017000 13.577500 171.076500
18247 1 40.732500 10.862000 171.076500
18248 1 40.732500 13.577500 168.361000
18249 1 39.374750 12.219750 169.718750
18250 1 39.374750 14.935250 172.434250
18251 1 42.090250 12.219750 172.434250
18252 1 42.090250 14.935250 169.718750
18253 1 38.017000 10.862000 173.792000
18254 1 38.017000 13.577500 176.507500
18255 1 40.732500 10.862000 176.507500
18256 1 40.732500 13.577500 173.792000
18257 1 39.374750 12.219750 175.149750
18258 1 39.374750 14.935250 177.865250
18259 1 42.090250 12.219750 177.865250
18260 1 42.090250 14.935250 175.149750
18261 1 38.017000 10.862000 179.223000
18262 1 38.017000 13.577500 181.938500
18263 1 40.732500 10.862000 181.938500
18264 1 40.732500 13.577500 179.223000
18265 1 39.374750 12.219750 180.580750
18266 1 39.374750 14.935250 183.296250
18267 1 42.090250 12.219750 183.296250
18268 1 42.090250 14.935250 180.580750
18269 1 38.017000 10.862000 184.654000
18270 1 38.017000 13.577500 187.369500
18271 1 40.732500 10.862000 187.369500
18272 1 40.732500 13.577500 184.654000
18273 1 39.374750 12.219750 186.011750
18274 1 39.374750 14.935250 188.727250
18275 1 42.090250 12.219750 188.727250
18276 1 42.090250 14.935250 186.011750
18277 1 38.017000 10.862000 190.085000
18278 1 38.017000 13.577500 192.800500
18279 1 40.732500 10.862000 192.800500
18280 1 40.732500 13.577500 190.085000
18281 1 39.374750 12.219750 191.442750
18282 1 39.374750 14.935250 194.158250
18283 1 42.090250 12.219750 194.158250
18284 1 42.090250 14.935250 191.442750
18285 1 38.017000 10.862000 195.516000
18286 1 38.017000 13.577500 198.231500
18287 1 40.732500 10.862000 198.231500
18288 1 40.732500 13.577500 195.516000
18289 1 39.374750 12.219750 196.873750
18290 1 39.374750 14.935250 199.589250
18291 1 42.090250 12.219750 199.589250
18292 1 42.090250 14.935250 196.873750
18293 1 38.017000 10.862000 200.947000
18294 1 38.017000 13.577500 203.662500
18295 1 40.732500 10.862000 203.662500
18296 1 40.732500 13.577500 200.947000
18297 1 39.374750 12.219750 202.304750
18298 1 39.374750 14.935250 205.020250
18299 1 42.090250 12.219750 205.020250
18300 1 42.090250 14.935250 202.304750
18301 1 38.017000 10.862000 206.378000
18302 1 38.017000 13.577500 209.093500
18303 1 40.732500 10.862000 209.093500
18304 1 40.732500 13.577500 206.378000
18305 1 39.374750 12.219750 207.735750
18306 1 39.374750 14.935250 210.451250
18307 1 42.090250 12.219750 210.451250
18308 1 42.090250 14.935250 207.735750
18309 1 38.017000 10.862000 211.809000
18310 1 38.017000 13.577500 214.524500
18311 1 40.732500 10.862000 214.524500
18312 1 40.732500 13.577500 211.809000
18313 1 39.374750 12.219750 213.166750
18314 1 39.374750 14.935250 215.882250
18315 1 42.090250 12.219750 215.882250
18316 1 42.090250 14.935250 213.166750
18317 1 38.017000 10.862000 217.240000
18318 1 38.017000 13.577500 219.955500
18319 1 40.732500 10.862000 219.955500
18320 1 40.732500 13.577500 217.240000
18321 1 39.374750 12.219750 218.597750
18322 1 39.374750 14.935250 221.313250
18323 1 42.090250 12.219750 221.313250
18324 1 42.090250 14.935250 218.597750
18325 1 38.017000 10.862000 222.671000
18326 1 38.017000 13.577500 225.386500
18327 1 40.732500 10.862000 225.386500
18328 1 40.732500 13.577500 222.671000
18329 1 39.374750 12.219750 224.028750
18330 1 39.374750 14.935250 226.744250
18331 1 42.090250 12.219750 226.744250
18332 1 42.090250 14.935250 224.028750
18333 1 38.017000 10.862000 228.102000
18334 1 38.017000 13.577500 230.817500
18335 1 40.732500 10.862000 230.817500
18336 1 40.732500 13.577500 228.102000
18337 1 39.374750 12.219750 229.459750
18338 1 39.374750 14.935250 232.175250
18339 1 42.090250 12.219750 232.175250
18340 1 42.090250 14.935250 229.459750
18341 1 38.017000 10.862000 233.533000
18342 1 38.017000 13.577500 236.248500
18343 1 40.732500 10.862000 236.248500
18344 1 40.732500 13.577500 233.533000
18345 1 39.374750 12.219750 234.890750
18346 1 39.374750 14.935250 237.606250
18347 1 42.090250 12.219750 237.606250
18348 1 42.090250 14.935250 234.890750
18349 1 38.017000 10.862000 238.964000
18350 1 38.017000 13.577500 241.679500
18351 1 40.732500 10.862000 241.679500
18352 1 40.732500 13.577500 238.964000
18353 1 39.374750 12.219750 240.321750
18354 1 39.374750 14.935250 243.037250
18355 1 42.090250 12.219750 243.037250
18356 1 42.090250 14.935250 240.321750
18357 1 38.017000 10.862000 244.395000
18358 1 38.017000 13.577500 247.110500
18359 1 40.732500 10.862000 247.110500
18360 1 40.732500 13.577500 244.395000
18361 1 39.374750 12.219750 245.752750
18362 1 39.374750 14.935250 248.468250
18363 1 42.090250 12.219750 248.468250
18364 1 42.090250 14.935250 245.752750
18365 1 38.017000 10.862000 249.826000
18366 1 38.017000 13.577500 252.541500
18367 1 40.732500 10.862000 252.541500
18368 1 40.732500 13.577500 249.826000
18369 1 39.374750 12.219750 251.183750
18370 1 39.374750 14.935250 253.899250
18371 1 42.090250 12.219750 253.899250
18372 1 42.090250 14.935250 251.183750
18373 1 38.017000 10.862000 255.257000
18374 1 38.017000 13.577500 257.972500
18375 1 40.732500 10.862000 257.972500
18376 1 40.732500 13.577500 255.257000
18377 1 39.374750 12.219750 256.614750
18378 1 39.374750 14.935250 259.330250
18379 1 42.090250 12.219750 259.330250
18380 1 42.090250 14.935250 256.614750
18381 1 38.017000 16.293000 0.000000
18382 1 38.017000 19.008500 2.715500
18383 1 40.732500 16.293000 2.715500
18384 1 40.732500 19.008500 0.000000
18385 1 39.374750 17.650750 1.357750
18386 1 39.374750 20.366250 4.073250
18387 1 42.090250 17.650750 4.073250
18388 1 42.090250 20.366250 1.357750
18389 1 38.017000 16.293000 5.431000
18390 1 38.017000 19.008500 8.146500
18391 1 40.732500 16.293000 8.146500
18392 1 40.732500 19.008500 5.431000
18393 1 39.374750 17.650750 6.788750
18394 1 39.374750 20.366250 9.504250
18395 1 42.090250 17.650750 9.504250
18396 1 42.090250 20.366250 6.788750
18397 1 38.017000 16.293000 10.862000
18398 1 38.017000 19.008500 13.577500
18399 1 40.732500 16.293000 13.577500
18400 1 40.732500 19.008500 10.862000
18401 1 39.374750 17.650750 12.219750
18402 1 39.374750 20.366250 14.935250
18403 1 42.090250 17.650750 14.935250
18404 1 42.090250 20.366250 12.219750
18405 1 38.017000 16.293000 16.293000
18406 1 38.017000 19.008500 19.008500
18407 1 40.732500 16.293000 19.008500
18408 1 40.732500 19.008500 16.293000
18409 1 39.374750 17.650750 17.650750
18410 1 39.374750 20.366250 20.366250
18411 1 42.090250 17.650750 20.366250
18412 1 42.090250 20.366250 17.650750
18413 1 38.017000 19.008500 46.163500
18414 1 40.732500 16.293000 46.163500
18415 1 39.374750 17.650750 44.805750
18416 1 39.374750 20.366250 47.521250
18417 1 42.090250 17.650750 47.521250
18418 1 42.090250 20.366250 44.805750
18419 1 38.017000 16.293000 48.879000
18420 1 38.017000 19.008500 51.594500
18421 1 40.732500 16.293000 51.594500
18422 1 40.732500 19.008500 48.879000
18423 1 39.374750 17.650750 50.236750
18424 1 39.374750 20.366250 52.952250
18425 1 42.090250 17.650750 52.952250
18426 1 42.090250 20.366250 50.236750
18427 1 38.017000 16.293000 54.310000
18428 1 38.017000 19.008500 57.025500
18429 1 40.732500 16.293000 57.025500
18430 1 40.732500 19.008500 54.310000
18431 1 39.374750 17.650750 55.667750
18432 1 39.374750 20.366250 58.383250
18433 1 42.090250 17.650750 58.383250
18434 1 42.090250 20.366250 55.667750
18435 1 38.017000 16.293000 59.741000
18436 1 38.017000 19.008500 62.456500
18437 1 40.732500 16.293000 62.456500
18438 1 40.732500 19.008500 59.741000
18439 1 39.374750 17.650750 61.098750
18440 1 39.374750 20.366250 63.814250
18441 1 42.090250 17.650750 63.814250
18442 1 42.090250 20.366250 61.098750
18443 1 38.017000 19.008500 89.611500
18444 1 40.732500 16.293000 89.611500
18445 1 39.374750 17.650750 88.253750
18446 1 39.374750 20.366250 90.969250
18447 1 42.090250 17.650750 90.969250
18448 1 42.090250 20.366250 88.253750
18449 1 38.017000 16.293000 92.327000
18450 1 38.017000 19.008500 95.042500
18451 1 40.732500 16.293000 95.042500
18452 1 40.732500 19.008500 92.327000
18453 1 39.374750 17.650750 93.684750
18454 1 39.374750 20.366250 96.400250
18455 1 42.090250 17.650750 96.400250
18456 1 42.090250 20.366250 93.684750
18457 1 38.017000 16.293000 97.758000
18458 1 38.017000 19.008500 100.473500
18459 1 40.732500 16.293000 100.473500
18460 1 40.732500 19.008500 97.758000
18461 1 39.374750 17.650750 99.115750
18462 1 39.374750 20.366250 101.831250
18463 1 42.090250 17.650750 101.831250
18464 1 42.090250 20.366250 99.115750
18465 1 38.017000 16.293000 103.189000
18466 1 38.017000 19.008500 105.904500
18467 1 40.732500 16.293000 105.904500
18468 1 40.732500 19.008500 103.189000
18469 1 39.374750 17.650750 104.546750
18470 1 39.374750 20.366250 107.262250
18471 1 42.090250 17.650750 107.262250
18472 1 42.090250 20.366250 104.546750
18473 1 38.017000 19.008500 133.059500
18474 1 40.732500 16.293000 133.059500
18475 1 39.374750 17.650750 131.701750
18476 1 39.374750 20.366250 134.417250
18477 1 42.090250 17.650750 134.417250
18478 1 42.090250 20.366250 131.701750
18479 1 38.017000 16.293000 135.775000
18480 1 38.017000 19.008500 138.490500
18481 1 40.732500 16.293000 138.490500
18482 1 40.732500 19.008500 135.775000
18483 1 39.374750 17.650750 137.132750
18484 1 39.374750 20.366250 139.848250
18485 1 42.090250 17.650750 139.848250
18486 1 42.090250 20.366250 137.132750
18487 1 38.017000 16.293000 141.206000
18488 1 38.017000 19.008500 143.921500
18489 1 40.732500 16.293000 143.921500
18490 1 40.732500 19.008500 141.206000
18491 1 39.374750 17.650750 142.563750
18492 1 39.374750 20.366250 145.279250
18493 1 42.090250 17.650750 145.279250
18494 1 42.090250 20.366250 142.563750
18495 1 38.017000 16.293000 146.637000
18496 1 38.017000 19.008500 149.352500
18497 1 40.732500 16.293000 149.352500
18498 1 40.732500 19.008500 146.637000
18499 1 39.374750 17.650750 147.994750
18500 1 39.374750 20.366250 150.710250
18501 1 42.090250 17.650750 150.710250
18502 1 42.090250 20.366250 147.994750
18503 1 38.017000 19.008500 176.507500
18504 1 40.732500 16.293000 176.507500
18505 1 39.374750 17.650750 175.149750
18506 1 39.374750 20.366250 177.865250
18507 1 42.090250 17.650750 177.865250
18508 1 42.090250 20.366250 175.149750
18509 1 38.017000 16.293000 179.223000
18510 1 38.017000 19.008500 181.938500
18511 1 40.732500 16.293000 181.938500
18512 1 40.732500 19.008500 179.223000
18513 1 39.374750 17.650750 180.580750
18514 1 39.374750 20.366250 183.296250
18515 1 42.090250 17.650750 183.296250
18516 1 42.090250 20.366250 180.580750
18517 1 38.017000 16.293000 184.654000
18518 1 38.017000 19.008500 187.369500
18519 1 40.732500 16.293000 187.369500
18520 1 40.732500 19.008500 184.654000
18521 1 39.374750 17.650750 186.011750
18522 1 39.374750 20.366250 188.727250
18523 1 42.090250 17.650750 188.727250
18524 1 42.090250 20.366250 186.011750
18525 1 38.017000 16.293000 190.085000
18526 1 38.017000 19.008500 192.800500
18527 1 40.732500 16.293000 192.800500
18528 1 40.732500 19.008500 190.085000
18529 1 39.374750 17.650750 191.442750
18530 1 39.374750 20.366250 194.158250
18531 1 42.090250 17.650750 194.158250
18532 1 42.090250 20.366250 191.442750
18533 1 38.017000 19.008500 219.955500
18534 1 40.732500 16.293000 219.955500
18535 1 39.374750 17.650750 218.597750
18536 1 39.374750 20.366250 221.313250
18537 1 42.090250 17.650750 221.313250
18538 1 42.090250 20.366250 218.597750
18539 1 38.017000 16.293000 222.671000
18540 1 38.017000 19.008500 225.386500
18541 1 40.732500 16.293000 225.386500
18542 1 40.732500 19.008500 222.671000
18543 1 39.374750 17.650750 224.028750
18544 1 39.374750 20.366250 226.744250
18545 1 42.090250 17.650750 226.744250
18546 1 42.090250 20.366250 224.028750
18547 1 38.017000 16.293000 228.102000
18548 1 38.017000 19.008500 230.817500
18549 1 40.732500 16.293000 230.817500
18550 1 40.732500 19.008500 228.102000
18551 1 39.374750 17.650750 229.459750
18552 1 39.374750 20.366250 232.175250
18553 1 42.090250 17.650750 232.175250
18554 1 42.090250 20.366250 229.459750
18555 1 38.017000 16.293000 233.533000
18556 1 38.017000 19.008500 236.248500
18557 1 40.732500 16.293000 236.248500
18558 1 40.732500 19.008500 233.533000
18559 1 39.374750 17.650750 234.890750
18560 1 39.374750 20.366250 237.606250
18561 1 42.090250 17.650750 237.606250
18562 1 42.090250 20.366250 234.890750
18563 1 38.017000 21.724000 0.000000
18564 1 38.017000 24.439500 2.715500
18565 1 40.732500 21.724000 2.715500
18566 1 40.732500 24.439500 0.000000
18567 1 39.374750 23.081750 1.357750
18568 1 39.374750 25.797250 4.073250
18569 1 42.090250 23.081750 4.073250
18570 1 42.090250 25.797250 1.357750
18571 1 38.017000 21.724000 5.431000
18572 1 38.017000 24.439500 8.146500
18573 1 40.732500 21.724000 8.146500
18574 1 40.732500 24.439500 5.431000
18575 1 39.374750 23.081750 6.788750
18576 1 39.374750 25.797250 9.504250
18577 1 42.090250 23.081750 9.504250
18578 1 42.090250 25.797250 6.788750
18579 1 38.017000 21.724000 10.862000
18580 1 38.017000 24.439500 13.577500
18581 1 40.732500 21.724000 13.577500
18582 1 40.732500 24.439500 10.862000
18583 1 39.374750 23.081750 12.219750
18584 1 39.374750 25.797250 14.935250
18585 1 42.090250 23.081750 14.935250
18586 1 42.090250 25.797250 12.219750
18587 1 38.017000 21.724000 16.293000
18588 1 38.017000 24.439500 19.008500
18589 1 40.732500 21.724000 19.008500
18590 1 40.732500 24.439500 16.293000
18591 1 39.374750 23.081750 17.650750
18592 1 39.374750 25.797250 20.366250
18593 1 42.090250 23.081750 20.366250
18594 1 42.090250 25.797250 17.650750
18595 1 38.017000 24.439500 46.163500
18596 1 40.732500 21.724000 46.163500
18597 1 39.374750 23.081750 44.805750
18598 1 39.374750 25.797250 47.521250
18599 1 42.090250 23.081750 47.521250
18600 1 42.090250 25.797250 44.805750
18601 1 38.017000 21.724000 48.879000
18602 1 38.017000 24.439500 51.594500
18603 1 40.732500 21.724000 51.594500
18604 1 40.732500 24.439500 48.879000
18605 1 39.374750 23.081750 50.236750
18606 1 39.374750 25.797250 52.952250
18607 1 42.090250 23.081750 52.952250
18608 1 42.090250 25.797250 50.236750
18609 1 38.017000 21.724000 54.310000
18610 1 38.017000 24.439500 57.025500
18611 1 40.732500 21.724000 57.025500
18612 1 40.732500 24.439500 54.310000
18613 1 39.374750 23.081750 55.667750
18614 1 39.374750 25.797250 58.383250
18615 1 42.090250 23.081750 58.383250
18616 1 42.090250 25.797250 55.667750
18617 1 38.017000 21.724000 59.741000
18618 1 38.017000 24.439500 62.456500
18619 1 40.732500 21.724000 62.456500
18620 1 40.732500 24.439500 59.741000
18621 1 39.374750 23.081750 61.098750
18622 1 39.374750 25.797250 63.814250
18623 1 42.090250 23.081750 63.814250
18624 1 42.090250 25.797250 61.098750
18625 1 38.017000 24.439500 89.611500
18626 1 40.732500 21.724000 89.611500
18627 1 39.374750 23.081750 88.253750
18628 1 39.374750 25.797250 90.969250
18629 1 42.090250 23.081750 90.969250
18630 1 42.090250 25.797250 88.253750
18631 1 38.017000 21.724000 92.327000
18632 1 38.017000 24.439500 95.042500
18633 1 40.732500 21.724000 95.042500
18634 1 40.732500 24.439500 92.327000
18635 1 39.374750 23.081750 93.684750
18636 1 39.374750 25.797250 96.400250
18637 1 42.090250 23.081750 96.400250
18638 1 42.090250 25.797250 93.684750
18639 1 38.017000 21.724000 97.758000
18640 1 38.017000 24.439500 100.473500
18641 1 40.732500 21.724000 100.473500
18642 1 40.732500 24.439500 97.758000
18643 1 39.374750 23.081750 99.115750
18644 1 39.374750 25.797250 101.831250
18645 1 42.090250 23.081750 101.831250
18646 1 42.090250 25.797250 99.115750
18647 1 38.017000 21.724000 103.189000
18648 1 38.017000 24.439500 105.904500
18649 1 40.732500 21.724000 105.904500
18650 1 40.732500 24.439500 103.189000
18651 1 39.374750 23.081750 104.546750
18652 1 39.374750 25.797250 107.262250
18653 1 42.090250 23.081750 107.262250
18654 1 42.090250 25.797250 104.546750
18655 1 38.017000 24.439500 133.059500
18656 1 40.732500 21.724000 133.059500
18657 1 39.374750 23.081750 131.701750
18658 1 39.374750 25.797250 134.417250
18659 1 42.090250 23.081750 134.417250
18660 1 42.090250 25.797250 131.701750
18661 1 38.017000 21.724000 135.775000
18662 1 38.017000 24.439500 138.490500
18663 1 40.732500 21.724000 138.490500
18664 1 40.732500 24.439500 135.775000
18665 1 39.374750 23.081750 137.132750
18666 1 39.374750 25.797250 139.848250
18667 1 42.090250 23.081750 139.848250
18668 1 42.090250 25.797250 137.132750
18669 1 38.017000 21.724000 141.206000
18670 1 38.017000 24.439500 143.921500
18671 1 40.732500 21.724000 143.921500
18672 1 40.732500 24.439500 141.206000
18673 1 39.374750 23.081750 142.563750
18674 1 39.374750 25.797250 145.279250
18675 1 42.090250 23.081750 145.279250
18676 1 42.090250 25.797250 142.563750
18677 1 38.017000 21.724000 146.637000
18678 1 38.017000 24.439500 149.352500
18679 1 40.732500 21.724000 149.352500
18680 1 40.732500 24.439500 146.637000
18681 1 39.374750 23.081750 147.994750
18682 1 39.374750 25.797250 150.710250
18683 1 42.090250 23.081750 150.710250
18684 1 42.090250 25.797250 147.994750
18685 1 38.017000 24.439500 176.507500
18686 1 40.732500 21.724000 176.507500
18687 1 39.374750 23.081750 175.149750
18688 1 39.374750 25.797250 177.865250
18689 1 42.090250 23.081750 177.865250
18690 1 42.090250 25.797250 175.149750
18691 1 38.017000 21.724000 179.223000
18692 1 38.017000 24.439500 181.938500
18693 1 40.732500 21.724000 181.938500
18694 1 40.732500 24.439500 179.223000
18695 1 39.374750 23.081750 180.580750
18696 1 39.374750 25.797250 183.296250
18697 1 42.090250 23.081750 183.296250
18698 1 42.090250 25.797250 180.580750
18699 1 38.017000 21.724000 184.654000
18700 1 38.017000 24.439500 187.369500
18701 1 40.732500 21.724000 187.369500
18702 1 40.732500 24.439500 184.654000
18703 1 39.374750 23.081750 186.011750
18704 1 39.374750 25.797250 188.727250
18705 1 42.090250 23.081750 188.727250
18706 1 42.090250 25.797250 186.011750
18707 1 38.017000 21.724000 190.085000
18708 1 38.017000 24.439500 192.800500
18709 1 40.732500 21.724000 192.800500
18710 1 40.732500 24.439500 190.085000
18711 1 39.374750 23.081750 191.442750
18712 1 39.374750 25.797250 194.158250
18713 1 42.090250 23.081750 194.158250
18714 1 42.090250 25.797250 191.442750
18715 1 38.017000 24.439500 219.955500
18716 1 40.732500 21.724000 219.955500
18717 1 39.374750 23.081750 218.597750
18718 1 39.374750 25.797250 221.313250
18719 1 42.090250 23.081750 221.313250
18720 1 42.090250 25.797250 218.597750
18721 1 38.017000 21.724000 222.671000
18722 1 38.017000 24.439500 225.386500
18723 1 40.732500 21.724000 225.386500
18724 1 40.732500 24.439500 222.671000
18725 1 39.374750 23.081750 224.028750
18726 1 39.374750 25.797250 226.744250
18727 1 42.090250 23.081750 226.744250
18728 1 42.090250 25.797250 224.028750
18729 1 38.017000 21.724000 228.102000
18730 1 38.017000 24.439500 230.817500
18731 1 40.732500 21.724000 230.817500
18732 1 40.732500 24.439500 228.102000
18733 1 39.374750 23.081750 229.459750
18734 1 39.374750 25.797250 232.175250
18735 1 42.090250 23.081750 232.175250
18736 1 42.090250 25.797250 229.459750
18737 1 38.017000 21.724000 233.533000
18738 1 38.017000 24.439500 236.248500
18739 1 40.732500 21.724000 236.248500
18740 1 40.732500 24.439500 233.533000
18741 1 39.374750 23.081750 234.890750
18742 1 39.374750 25.797250 237.606250
18743 1 42.090250 23.081750 237.606250
18744 1 42.090250 25.797250 234.890750
18745 1 38.017000 27.155000 0.000000
18746 1 38.017000 29.870500 2.715500
18747 1 40.732500 27.155000 2.715500
18748 1 40.732500 29.870500 0.000000
18749 1 39.374750 28.512750 1.357750
18750 1 39.374750 31.228250 4.073250
18751 1 42.090250 28.512750 4.073250
18752 1 42.090250 31.228250 1.357750
18753 1 38.017000 27.155000 5.431000
18754 1 38.017000 29.870500 8.146500
18755 1 40.732500 27.155000 8.146500
18756 1 40.732500 29.870500 5.431000
18757 1 39.374750 28.512750 6.788750
18758 1 39.374750 31.228250 9.504250
18759 1 42.090250 28.512750 9.504250
18760 1 42.090250 31.228250 6.788750
18761 1 38.017000 27.155000 10.862000
18762 1 38.017000 29.870500 13.577500
18763 1 40.732500 27.155000 13.577500
18764 1 40.732500 29.870500 10.862000
18765 1 39.374750 28.512750 12.219750
18766 1 39.374750 31.228250 14.935250
18767 1 42.090250 28.512750 14.935250
18768 1 42.090250 31.228250 12.219750
18769 1 38.017000 27.155000 16.293000
18770 1 38.017000 29.870500 19.008500
18771 1 40.732500 27.155000 19.008500
18772 1 40.732500 29.870500 16.293000
18773 1 39.374750 28.512750 17.650750
18774 1 39.374750 31.228250 20.366250
18775 1 42.090250 28.512750 20.366250
18776 1 42.090250 31.228250 17.650750
18777 1 38.017000 29.870500 24.439500
18778 1 40.732500 29.870500 21.724000
18779 1 39.374750 28.512750 23.081750
18780 1 39.374750 31.228250 25.797250
18781 1 42.090250 28.512750 25.797250
18782 1 42.090250 31.228250 23.081750
18783 1 38.017000 29.870500 29.870500
18784 1 40.732500 29.870500 27.155000
18785 1 39.374750 28.512750 28.512750
18786 1 39.374750 31.228250 31.228250
18787 1 42.090250 28.512750 31.228250
18788 1 42.090250 31.228250 28.512750
18789 1 38.017000 29.870500 35.301500
18790 1 40.732500 29.870500 32.586000
18791 1 39.374750 28.512750 33.943750
18792 1 39.374750 31.228250 36.659250
18793 1 42.090250 28.512750 36.659250
18794 1 42.090250 31.228250 33.943750
18795 1 38.017000 29.870500 40.732500
18796 1 40.732500 29.870500 38.017000
18797 1 39.374750 28.512750 39.374750
18798 1 39.374750 31.228250 42.090250
18799 1 42.090250 28.512750 42.090250
18800 1 42.090250 31.228250 39.374750
18801 1 38.017000 29.870500 46.163500
18802 1 40.732500 27.155000 46.163500
18803 1 40.732500 29.870500 43.448000
18804 1 39.374750 28.512750 44.805750
18805 1 39.374750 31.228250 47.521250
18806 1 42.090250 28.512750 47.521250
18807 1 42.090250 31.228250 44.805750
18808 1 38.017000 27.155000 48.879000
18809 1 38.017000 29.870500 51.594500
18810 1 40.732500 27.155000 51.594500
18811 1 40.732500 29.870500 48.879000
18812 1 39.374750 28.512750 50.236750
18813 1 39.374750 31.228250 52.952250
18814 1 42.090250 28.512750 52.952250
18815 1 42.090250 31.228250 50.236750
18816 1 38.017000 27.155000 54.310000
18817 1 38.017000 29.870500 57.025500
18818 1 40.732500 27.155000 57.025500
18819 1 40.732500 29.870500 54.310000
18820 1 39.374750 28.512750 55.667750
18821 1 39.374750 31.228250 58.383250
18822 1 42.090250 28.512750 58.383250
18823 1 42.090250 31.228250 55.667750
18824 1 38.017000 27.155000 59.741000
18825 1 38.017000 29.870500 62.456500
18826 1 40.732500 27.155000 62.456500
18827 1 40.732500 29.870500 59.741000
18828 1 39.374750 28.512750 61.098750
18829 1 39.374750 31.228250 63.814250
18830 1 42.090250 28.512750 63.814250
18831 1 42.090250 31.228250 61.098750
18832 1 38.017000 29.870500 67.887500
18833 1 40.732500 29.870500 65.172000
18834 1 39.374750 28.512750 66.529750
18835 1 39.374750 31.228250 69.245250
18836 1 42.090250 28.512750 69.245250
18837 1 42.090250 31.228250 66.529750
18838 1 38.017000 29.870500 73.318500
18839 1 40.732500 29.870500 70.603000
18840 1 39.374750 28.512750 71.960750
18841 1 39.374750 31.228250 74.676250
18842 1 42.090250 28.512750 74.676250
18843 1 42.090250 31.228250 71.960750
18844 1 38.017000 29.870500 78.749500
18845 1 40.732500 29.870500 76.034000
18846 1 39.374750 28.512750 77.391750
18847 1 39.374750 31.228250 80.107250
18848 1 42.090250 28.512750 80.107250
18849 1 42.090250 31.228250 77.391750
18850 1 38.017000 29.870500 84.180500
18851 1 40.732500 29.870500 81.465000
18852 1 39.374750 28.512750 82.822750
18853 1 39.374750 31.228250 85.538250
18854 1 42.090250 28.512750 85.538250
18855 1 42.090250 31.228250 82.822750
18856 1 38.017000 29.870500 89.611500
18857 1 40.732500 27.155000 89.611500
18858 1 40.732500 29.870500 86.896000
18859 1 39.374750 28.512750 88.253750
18860 1 39.374750 31.228250 90.969250
18861 1 42.090250 28.512750 90.969250
18862 1 42.090250 31.228250 88.253750
18863 1 38.017000 27.155000 92.327000
18864 1 38.017000 29.870500 95.042500
18865 1 40.732500 27.155000 95.042500
18866 1 40.732500 29.870500 92.327000
18867 1 39.374750 28.512750 93.684750
18868 1 39.374750 31.228250 96.400250
18869 1 42.090250 28.512750 96.400250
18870 1 42.090250 31.228250 93.684750
18871 1 38.017000 27.155000 97.758000
18872 1 38.017000 29.870500 100.473500
18873 1 40.732500 27.155000 100.473500
18874 1 40.732500 29.870500 97.758000
18875 1 39.374750 28.512750 99.115750
18876 1 39.374750 31.228250 101.831250
18877 1 42.090250 28.512750 101.831250
18878 1 42.090250 31.228250 99.115750
18879 1 38.017000 27.155000 103.189000
18880 1 38.017000 29.870500 105.904500
18881 1 40.732500 27.155000 105.904500
18882 1 40.732500 29.870500 103.189000
18883 1 39.374750 28.512750 104.546750
18884 1 39.374750 31.228250 107.262250
18885 1 42.090250 28.512750 107.262250
18886 1 42.090250 31.228250 104.546750
18887 1 38.017000 29.870500 111.335500
18888 1 40.732500 29.870500 108.620000
18889 1 39.374750 28.512750 109.977750
18890 1 39.374750 31.228250 112.693250
18891 1 42.090250 28.512750 112.693250
18892 1 42.090250 31.228250 109.977750
18893 1 38.017000 29.870500 116.766500
18894 1 40.732500 29.870500 114.051000
18895 1 39.374750 28.512750 115.408750
18896 1 39.374750 31.228250 118.124250
18897 1 42.090250 28.512750 118.124250
18898 1 42.090250 31.228250 115.408750
18899 1 38.017000 29.870500 122.197500
18900 1 40.732500 29.870500 119.482000
18901 1 39.374750 28.512750 120.839750
18902 1 39.374750 31.228250 123.555250
18903 1 42.090250 28.512750 123.555250
18904 1 42.090250 31.228250 120.839750
18905 1 38.017000 29.870500 127.628500
18906 1 40.732500 29.870500 124.913000
18907 1 39.374750 28.512750 126.270750
18908 1 39.374750 31.228250 128.986250
18909 1 42.090250 28.512750 128.986250
18910 1 42.090250 31.228250 126.270750
18911 1 38.017000 29.870500 133.059500
18912 1 40.732500 27.155000 133.059500
18913 1 40.732500 29.870500 130.344000
18914 1 39.374750 28.512750 131.701750
18915 1 39.374750 31.228250 134.417250
18916 1 42.090250 28.512750 134.417250
18917 1 42.090250 31.228250 131.701750
18918 1 38.017000 27.155000 135.775000
18919 1 38.017000 29.870500 138.490500
18920 1 40.732500 27.155000 138.490500
18921 1 40.732500 29.870500 135.775000
18922 1 39.374750 28.512750 137.132750
18923 1 39.374750 31.228250 139.848250
18924 1 42.090250 28.512750 139.848250
18925 1 42.090250 31.228250 137.132750
18926 1 38.017000 27.155000 141.206000
18927 1 38.017000 29.870500 143.921500
18928 1 40.732500 27.155000 143.921500
18929 1 40.732500 29.870500 141.206000
18930 1 39.374750 28.512750 142.563750
18931 1 39.374750 31.228250 145.279250
18932 1 42.090250 28.512750 145.279250
18933 1 42.090250 31.228250 142.563750
18934 1 38.017000 27.155000 146.637000
18935 1 38.017000 29.870500 149.352500
18936 1 40.732500 27.155000 149.352500
18937 1 40.732500 29.870500 146.637000
18938 1 39.374750 28.512750 147.994750
18939 1 39.374750 31.228250 150.710250
18940 1 42.090250 28.512750 150.710250
18941 1 42.090250 31.228250 147.994750
18942 1 38.017000 29.870500 154.783500
18943 1 40.732500 29.870500 152.068000
18944 1 39.374750 28.512750 153.425750
18945 1 39.374750 31.228250 156.141250
18946 1 42.090250 28.512750 156.141250
18947 1 42.090250 31.228250 153.425750
18948 1 38.017000 29.870500 160.214500
18949 1 40.732500 29.870500 157.499000
18950 1 39.374750 28.512750 158.856750
18951 1 39.374750 31.228250 161.572250
18952 1 42.090250 28.512750 161.572250
18953 1 42.090250 31.228250 158.856750
18954 1 38.017000 29.870500 165.645500
18955 1 40.732500 29.870500 162.930000
18956 1 39.374750 28.512750 164.287750
18957 1 39.374750 31.228250 167.003250
18958 1 42.090250 28.512750 167.003250
18959 1 42.090250 31.228250 164.287750
18960 1 38.017000 29.870500 171.076500
18961 1 40.732500 29.870500 168.361000
18962 1 39.374750 28.512750 169.718750
18963 1 39.374750 31.228250 172.434250
18964 1 42.090250 28.512750 172.434250
18965 1 42.090250 31.228250 169.718750
18966 1 38.017000 29.870500 176.507500
18967 1 40.732500 27.155000 176.507500
18968 1 40.732500 29.870500 173.792000
18969 1 39.374750 28.512750 175.149750
18970 1 39.374750 31.228250 177.865250
18971 1 42.090250 28.512750 177.865250
18972 1 42.090250 31.228250 175.149750
18973 1 38.017000 27.155000 179.223000
18974 1 38.017000 29.870500 181.938500
18975 1 40.732500 27.155000 181.938500
18976 1 40.732500 29.870500 179.223000
18977 1 39.374750 28.512750 180.580750
18978 1 39.374750 31.228250 183.296250
18979 1 42.090250 28.512750 183.296250
18980 1 42.090250 31.228250 180.580750
18981 1 38.017000 27.155000 184.654000
18982 1 38.017000 29.870500 187.369500
18983 1 40.732500 27.155000 187.369500
18984 1 40.732500 29.870500 184.654000
18985 1 39.374750 28.512750 186.011750
18986 1 39.374750 31.228250 188.727250
18987 1 42.090250 28.512750 188.727250
18988 1 42.090250 31.228250 186.011750
18989 1 38.017000 27.155000 190.085000
18990 1 38.017000 29.870500 192.800500
18991 1 40.732500 27.155000 192.800500
18992 1 40.732500 29.870500 190.085000
18993 1 39.374750 28.512750 191.442750
18994 1 39.374750 31.228250 194.158250
18995 1 42.090250 28.512750 194.158250
18996 1 42.090250 31.228250 191.442750
18997 1 38.017000 29.870500 198.231500
18998 1 40.732500 29.870500 195.516000
18999 1 39.374750 28.512750 196.873750
19000 1 39.374750 31.228250 199.589250
19001 1 42.090250 28.512750 199.589250
19002 1 42.090250 31.228250 196.873750
19003 1 38.017000 29.870500 203.662500
19004 1 40.732500 29.870500 200.947000
19005 1 39.374750 28.512750 202.304750
19006 1 39.374750 31.228250 205.020250
19007 1 42.090250 28.512750 205.020250
19008 1 42.090250 31.228250 202.304750
19009 1 38.017000 29.870500 209.093500
19010 1 40.732500 29.870500 206.378000
19011 1 39.374750 28.512750 207.735750
19012 1 39.374750 31.228250 210.451250
19013 1 42.090250 28.512750 210.451250
19014 1 42.090250 31.228250 207.735750
19015 1 38.017000 29.870500 214.524500
19016 1 40.732500 29.870500 211.809000
19017 1 39.374750 28.512750 213.166750
19018 1 39.374750 31.228250 215.882250
19019 1 42.090250 28.512750 215.882250
19020 1 42.090250 31.228250 213.166750
19021 1 38.017000 29.870500 219.955500
19022 1 40.732500 27.155000 219.955500
19023 1 40.732500 29.870500 217.240000
19024 1 39.374750 28.512750 218.597750
19025 1 39.374750 31.228250 221.313250
19026 1 42.090250 28.512750 221.313250
19027 1 42.090250 31.228250 218.597750
19028 1 38.017000 27.155000 222.671000
19029 1 38.017000 29.870500 225.386500
19030 1 40.732500 27.155000 225.386500
19031 1 40.732500 29.870500 222.671000
19032 1 39.374750 28.512750 224.028750
19033 1 39.374750 31.228250 226.744250
19034 1 42.090250 28.512750 226.744250
19035 1 42.090250 31.228250 224.028750
19036 1 38.017000 27.155000 228.102000
19037 1 38.017000 29.870500 230.817500
19038 1 40.732500 27.155000 230.817500
19039 1 40.732500 29.870500 228.102000
19040 1 39.374750 28.512750 229.459750
19041 1 39.374750 31.228250 232.175250
19042 1 42.090250 28.512750 232.175250
19043 1 42.090250 31.228250 229.459750
19044 1 38.017000 27.155000 233.533000
19045 1 38.017000 29.870500 236.248500
19046 1 40.732500 27.155000 236.248500
19047 1 40.732500 29.870500 233.533000
19048 1 39.374750 28.512750 234.890750
19049 1 39.374750 31.228250 237.606250
19050 1 42.090250 28.512750 237.606250
19051 1 42.090250 31.228250 234.890750
19052 1 38.017000 29.870500 241.679500
19053 1 40.732500 29.870500 238.964000
19054 1 39.374750 28.512750 240.321750
19055 1 39.374750 31.228250 243.037250
19056 1 42.090250 28.512750 243.037250
19057 1 42.090250 31.228250 240.321750
19058 1 38.017000 29.870500 247.110500
19059 1 40.732500 29.870500 244.395000
19060 1 39.374750 28.512750 245.752750
19061 1 39.374750 31.228250 248.468250
19062 1 42.090250 28.512750 248.468250
19063 1 42.090250 31.228250 245.752750
19064 1 38.017000 29.870500 252.541500
19065 1 40.732500 29.870500 249.826000
19066 1 39.374750 28.512750 251.183750
19067 1 39.374750 31.228250 253.899250
19068 1 42.090250 28.512750 253.899250
19069 1 42.090250 31.228250 251.183750
19070 1 38.017000 29.870500 257.972500
19071 1 40.732500 29.870500 255.257000
19072 1 39.374750 28.512750 256.614750
19073 1 39.374750 31.228250 259.330250
19074 1 42.090250 28.512750 259.330250
19075 1 42.090250 31.228250 256.614750
19076 1 38.017000 32.586000 0.000000
19077 1 38.017000 35.301500 2.715500
19078 1 40.732500 32.586000 2.715500
19079 1 40.732500 35.301500 0.000000
19080 1 39.374750 33.943750 1.357750
19081 1 39.374750 36.659250 4.073250
19082 1 42.090250 33.943750 4.073250
19083 1 42.090250 36.659250 1.357750
19084 1 38.017000 32.586000 5.431000
19085 1 38.017000 35.301500 8.146500
19086 1 40.732500 32.586000 8.146500
19087 1 40.732500 35.301500 5.431000
19088 1 39.374750 33.943750 6.788750
19089 1 39.374750 36.659250 9.504250
19090 1 42.090250 33.943750 9.504250
19091 1 42.090250 36.659250 6.788750
19092 1 38.017000 32.586000 10.862000
19093 1 38.017000 35.301500 13.577500
19094 1 40.732500 32.586000 13.577500
19095 1 40.732500 35.301500 10.862000
19096 1 39.374750 33.943750 12.219750
19097 1 39.374750 36.659250 14.935250
19098 1 42.090250 33.943750 14.935250
19099 1 42.090250 36.659250 12.219750
19100 1 38.017000 32.586000 16.293000
19101 1 38.017000 35.301500 19.008500
19102 1 40.732500 32.586000 19.008500
19103 1 40.732500 35.301500 16.293000
19104 1 39.374750 33.943750 17.650750
19105 1 39.374750 36.659250 20.366250
19106 1 42.090250 33.943750 20.366250
19107 1 42.090250 36.659250 17.650750
19108 1 38.017000 32.586000 21.724000
19109 1 38.017000 35.301500 24.439500
19110 1 40.732500 32.586000 24.439500
19111 1 40.732500 35.301500 21.724000
19112 1 39.374750 33.943750 23.081750
19113 1 39.374750 36.659250 25.797250
19114 1 42.090250 33.943750 25.797250
19115 1 42.090250 36.659250 23.081750
19116 1 38.017000 32.586000 27.155000
19117 1 38.017000 35.301500 29.870500
19118 1 40.732500 32.586000 29.870500
19119 1 40.732500 35.301500 27.155000
19120 1 39.374750 33.943750 28.512750
19121 1 39.374750 36.659250 31.228250
19122 1 42.090250 33.943750 31.228250
19123 1 42.090250 36.659250 28.512750
19124 1 38.017000 32.586000 32.586000
19125 1 38.017000 35.301500 35.301500
19126 1 40.732500 32.586000 35.301500
19127 1 40.732500 35.301500 32.586000
19128 1 39.374750 33.943750 33.943750
19129 1 39.374750 36.659250 36.659250
19130 1 42.090250 33.943750 36.659250
19131 1 42.090250 36.659250 33.943750
19132 1 38.017000 32.586000 38.017000
19133 1 38.017000 35.301500 40.732500
19134 1 40.732500 32.586000 40.732500
19135 1 40.732500 35.301500 38.017000
19136 1 39.374750 33.943750 39.374750
19137 1 39.374750 36.659250 42.090250
19138 1 42.090250 33.943750 42.090250
19139 1 42.090250 36.659250 39.374750
19140 1 38.017000 32.586000 43.448000
19141 1 38.017000 35.301500 46.163500
19142 1 40.732500 32.586000 46.163500
19143 1 40.732500 35.301500 43.448000
19144 1 39.374750 33.943750 44.805750
19145 1 39.374750 36.659250 47.521250
19146 1 42.090250 33.943750 47.521250
19147 1 42.090250 36.659250 44.805750
19148 1 38.017000 32.586000 48.879000
19149 1 38.017000 35.301500 51.594500
19150 1 40.732500 32.586000 51.594500
19151 1 40.732500 35.301500 48.879000
19152 1 39.374750 33.943750 50.236750
19153 1 39.374750 36.659250 52.952250
19154 1 42.090250 33.943750 52.952250
19155 1 42.090250 36.659250 50.236750
19156 1 38.017000 32.586000 54.310000
19157 1 38.017000 35.301500 57.025500
19158 1 40.732500 32.586000 57.025500
19159 1 40.732500 35.301500 54.310000
19160 1 39.374750 33.943750 55.667750
19161 1 39.374750 36.659250 58.383250
19162 1 42.090250 33.943750 58.383250
19163 1 42.090250 36.659250 55.667750
19164 1 38.017000 32.586000 59.741000
19165 1 38.017000 35.301500 62.456500
19166 1 40.732500 32.586000 62.456500
19167 1 40.732500 35.301500 59.741000
19168 1 39.374750 33.943750 61.098750
19169 1 39.374750 36.659250 63.814250
19170 1 42.090250 33.943750 63.814250
19171 1 42.090250 36.659250 61.098750
19172 1 38.017000 32.586000 65.172000
19173 1 38.017000 35.301500 67.887500
19174 1 40.732500 32.586000 67.887500
19175 1 40.732500 35.301500 65.172000
19176 1 39.374750 33.943750 66.529750
19177 1 39.374750 36.659250 69.245250
19178 1 42.090250 33.943750 69.245250
19179 1 42.090250 36.659250 66.529750
19180 1 38.017000 32.586000 70.603000
19181 1 38.017000 35.301500 73.318500
19182 1 40.732500 32.586000 73.318500
19183 1 40.732500 35.301500 70.603000
19184 1 39.374750 33.943750 71.960750
19185 1 39.374750 36.659250 74.676250
19186 1 42.090250 33.943750 74.676250
19187 1 42.090250 36.659250 71.960750
19188 1 38.017000 32.586000 76.034000
19189 1 38.017000 35.301500 78.749500
19190 1 40.732500 32.586000 78.749500
19191 1 40.732500 35.301500 76.034000
19192 1 39.374750 33.943750 77.391750
19193 1 39.374750 36.659250 80.107250
19194 1 42.090250 33.943750 80.107250
19195 1 42.090250 36.659250 77.391750
19196 1 38.017000 32.586000 81.465000
19197 1 38.017000 35.301500 84.180500
19198 1 40.732500 32.586000 84.180500
19199 1 40.732500 35.301500 81.465000
19200 1 39.374750 33.943750 82.822750
19201 1 39.374750 36.659250 85.538250
19202 1 42.090250 33.943750 85.538250
19203 1 42.090250 36.659250 82.822750
19204 1 38.017000 32.586000 86.896000
19205 1 38.017000 35.301500 89.611500
19206 1 40.732500 32.586000 89.611500
19207 1 40.732500 35.301500 86.896000
19208 1 39.374750 33.943750 88.253750
19209 1 39.374750 36.659250 90.969250
19210 1 42.090250 33.943750 90.969250
19211 1 42.090250 36.659250 88.253750
19212 1 38.017000 32.586000 92.327000
19213 1 38.017000 35.301500 95.042500
19214 1 40.732500 32.586000 95.042500
19215 1 40.732500 35.301500 92.327000
19216 1 39.374750 33.943750 93.684750
19217 1 39.374750 36.659250 96.400250
19218 1 42.090250 33.943750 96.400250
19219 1 42.090250 36.659250 93.684750
19220 1 38.017000 32.586000 97.758000
19221 1 38.017000 35.301500 100.473500
19222 1 40.732500 32.586000 100.473500
19223 1 40.732500 35.301500 97.758000
19224 1 39.374750 33.943750 99.115750
19225 1 39.374750 36.659250 101.831250
19226 1 42.090250 33.943750 101.831250
19227 1 42.090250 36.659250 99.115750
19228 1 38.017000 32.586000 103.189000
19229 1 38.017000 35.301500 105.904500
19230 1 40.732500 32.586000 105.904500
19231 1 40.732500 35.301500 103.189000
19232 1 39.374750 33.943750 104.546750
19233 1 39.374750 36.659250 107.262250
19234 1 42.090250 33.943750 107.262250
19235 1 42.090250 36.659250 104.546750
19236 1 38.017000 32.586000 108.620000
19237 1 38.017000 35.301500 111.335500
19238 1 40.732500 32.586000 111.335500
19239 1 40.732500 35.301500 108.620000
19240 1 39.374750 33.943750 109.977750
19241 1 39.374750 36.659250 112.693250
19242 1 42.090250 33.943750 112.693250
19243 1 42.090250 36.659250 109.977750
19244 1 38.017000 32.586000 114.051000
19245 1 38.017000 35.301500 116.766500
19246 1 40.732500 32.586000 116.766500
19247 1 40.732500 35.301500 114.051000
19248 1 39.374750 33.943750 115.408750
19249 1 39.374750 36.659250 118.124250
19250 1 42.090250 33.943750 118.124250
19251 1 42.090250 36.659250 115.408750
19252 1 38.017000 32.586000 119.482000
19253 1 38.017000 35.301500 122.197500
19254 1 40.732500 32.586000 122.197500
19255 1 40.732500 35.301500 119.482000
19256 1 39.374750 33.943750 120.839750
19257 1 39.374750 36.659250 123.555250
19258 1 42.090250 33.943750 123.555250
19259 1 42.090250 36.659250 120.839750
19260 1 38.017000 32.586000 124.913000
19261 1 38.017000 35.301500 127.628500
19262 1 40.732500 32.586000 127.628500
19263 1 40.732500 35.301500 124.913000
19264 1 39.374750 33.943750 126.270750
19265 1 39.374750 36.659250 128.986250
19266 1 42.090250 33.943750 128.986250
19267 1 42.090250 36.659250 126.270750
19268 1 38.017000 32.586000 130.344000
19269 1 38.017000 35.301500 133.059500
19270 1 40.732500 32.586000 133.059500
19271 1 40.732500 35.301500 130.344000
19272 1 39.374750 33.943750 131.701750
19273 1 39.374750 36.659250 134.417250
19274 1 42.090250 33.943750 134.417250
19275 1 42.090250 36.659250 131.701750
19276 1 38.017000 32.586000 135.775000
19277 1 38.017000 35.301500 138.490500
19278 1 40.732500 32.586000 138.490500
19279 1 40.732500 35.301500 135.775000
19280 1 39.374750 33.943750 137.132750
19281 1 39.374750 36.659250 139.848250
19282 1 42.090250 33.943750 139.848250
19283 1 42.090250 36.659250 137.132750
19284 1 38.017000 32.586000 141.206000
19285 1 38.017000 35.301500 143.921500
19286 1 40.732500 32.586000 143.921500
19287 1 40.732500 35.301500 141.206000
19288 1 39.374750 33.943750 142.563750
19289 1 39.374750 36.659250 145.279250
19290 1 42.090250 33.943750 145.279250
19291 1 42.090250 36.659250 142.563750
19292 1 38.017000 32.586000 146.637000
19293 1 38.017000 35.301500 149.352500
19294 1 40.732500 32.586000 149.352500
19295 1 40.732500 35.301500 146.637000
19296 1 39.374750 33.943750 147.994750
19297 1 39.374750 36.659250 150.710250
19298 1 42.090250 33.943750 150.710250
19299 1 42.090250 36.659250 147.994750
19300 1 38.017000 32.586000 152.068000
19301 1 38.017000 35.301500 154.783500
19302 1 40.732500 32.586000 154.783500
19303 1 40.732500 35.301500 152.068000
19304 1 39.374750 33.943750 153.425750
19305 1 39.374750 36.659250 156.141250
19306 1 42.090250 33.943750 156.141250
19307 1 42.090250 36.659250 153.425750
19308 1 38.017000 32.586000 157.499000
19309 1 38.017000 35.301500 160.214500
19310 1 40.732500 32.586000 160.214500
19311 1 40.732500 35.301500 157.499000
19312 1 39.374750 33.943750 158.856750
19313 1 39.374750 36.659250 161.572250
19314 1 42.090250 33.943750 161.572250
19315 1 42.090250 36.659250 158.856750
19316 1 38.017000 32.586000 162.930000
19317 1 38.017000 35.301500 165.645500
19318 1 40.732500 32.586000 165.645500
19319 1 40.732500 35.301500 162.930000
19320 1 39.374750 33.943750 164.287750
19321 1 39.374750 36.659250 167.003250
19322 1 42.090250 33.943750 167.003250
19323 1 42.090250 36.659250 164.287750
19324 1 38.017000 32.586000 168.361000
19325 1 38.017000 35.301500 171.076500
19326 1 40.732500 32.586000 171.076500
19327 1 40.732500 35.301500 168.361000
19328 1 39.374750 33.943750 169.718750
19329 1 39.374750 36.659250 172.434250
19330 1 42.090250 33.943750 172.434250
19331 1 42.090250 36.659250 169.718750
19332 1 38.017000 32.586000 173.792000
19333 1 38.017000 35.301500 176.507500
19334 1 40.732500 32.586000 176.507500
19335 1 40.732500 35.301500 173.792000
19336 1 39.374750 33.943750 175.149750
19337 1 39.374750 36.659250 177.865250
19338 1 42.090250 33.943750 177.865250
19339 1 42.090250 36.659250 175.149750
19340 1 38.017000 32.586000 179.223000
19341 1 38.017000 35.301500 181.938500
19342 1 40.732500 32.586000 181.938500
19343 1 40.732500 35.301500 179.223000
19344 1 39.374750 33.943750 180.580750
19345 1 39.374750 36.659250 183.296250
19346 1 42.090250 33.943750 183.296250
19347 1 42.090250 36.659250 180.580750
19348 1 38.017000 32.586000 184.654000
19349 1 38.017000 35.301500 187.369500
19350 1 40.732500 32.586000 187.369500
19351 1 40.732500 35.301500 184.654000
19352 1 39.374750 33.943750 186.011750
19353 1 39.374750 36.659250 188.727250
19354 1 42.090250 33.943750 188.727250
19355 1 42.090250 36.659250 186.011750
19356 1 38.017000 32.586000 190.085000
19357 1 38.017000 35.301500 192.800500
19358 1 40.732500 32.586000 192.800500
19359 1 40.732500 35.301500 190.085000
19360 1 39.374750 33.943750 191.442750
19361 1 39.374750 36.659250 194.158250
19362 1 42.090250 33.943750 194.158250
19363 1 42.090250 36.659250 191.442750
19364 1 38.017000 32.586000 195.516000
19365 1 38.017000 35.301500 198.231500
19366 1 40.732500 32.586000 198.231500
19367 1 40.732500 35.301500 195.516000
19368 1 39.374750 33.943750 196.873750
19369 1 39.374750 36.659250 199.589250
19370 1 42.090250 33.943750 199.589250
19371 1 42.090250 36.659250 196.873750
19372 1 38.017000 32.586000 200.947000
19373 1 38.017000 35.301500 203.662500
19374 1 40.732500 32.586000 203.662500
19375 1 40.732500 35.301500 200.947000
19376 1 39.374750 33.943750 202.304750
19377 1 39.374750 36.659250 205.020250
19378 1 42.090250 33.943750 205.020250
19379 1 42.090250 36.659250 202.304750
19380 1 38.017000 32.586000 206.378000
19381 1 38.017000 35.301500 209.093500
19382 1 40.732500 32.586000 209.093500
19383 1 40.732500 35.301500 206.378000
19384 1 39.374750 33.943750 207.735750
19385 1 39.374750 36.659250 210.451250
19386 1 42.090250 33.943750 210.451250
19387 1 42.090250 36.659250 207.735750
19388 1 38.017000 32.586000 211.809000
19389 1 38.017000 35.301500 214.524500
19390 1 40.732500 32.586000 214.524500
19391 1 40.732500 35.301500 211.809000
19392 1 39.374750 33.943750 213.166750
19393 1 39.374750 36.659250 215.882250
19394 1 42.090250 33.943750 215.882250
19395 1 42.090250 36.659250 213.166750
19396 1 38.017000 32.586000 217.240000
19397 1 38.017000 35.301500 219.955500
19398 1 40.732500 32.586000 219.955500
19399 1 40.732500 35.301500 217.240000
19400 1 39.374750 33.943750 218.597750
19401 1 39.374750 36.659250 221.313250
19402 1 42.090250 33.943750 221.313250
19403 1 42.090250 36.659250 218.597750
19404 1 38.017000 32.586000 222.671000
19405 1 38.017000 35.301500 225.386500
19406 1 40.732500 32.586000 225.386500
19407 1 40.732500 35.301500 222.671000
19408 1 39.374750 33.943750 224.028750
19409 1 39.374750 36.659250 226.744250
19410 1 42.090250 33.943750 226.744250
19411 1 42.090250 36.659250 224.028750
19412 1 38.017000 32.586000 228.102000
19413 1 38.017000 35.301500 230.817500
19414 1 40.732500 32.586000 230.817500
19415 1 40.732500 35.301500 228.102000
19416 1 39.374750 33.943750 229.459750
19417 1 39.374750 36.659250 232.175250
19418 1 42.090250 33.943750 232.175250
19419 1 42.090250 36.659250 229.459750
19420 1 38.017000 32.586000 233.533000
19421 1 38.017000 35.301500 236.248500
19422 1 40.732500 32.586000 236.248500
19423 1 40.732500 35.301500 233.533000
19424 1 39.374750 33.943750 234.890750
19425 1 39.374750 36.659250 237.606250
19426 1 42.090250 33.943750 237.606250
19427 1 42.090250 36.659250 234.890750
19428 1 38.017000 32.586000 238.964000
19429 1 38.017000 35.301500 241.679500
19430 1 40.732500 32.586000 241.679500
19431 1 40.732500 35.301500 238.964000
19432 1 39.374750 33.943750 240.321750
19433 1 39.374750 36.659250 243.037250
19434 1 42.090250 33.943750 243.037250
19435 1 42.090250 36.659250 240.321750
19436 1 38.017000 32.586000 244.395000
19437 1 38.017000 35.301500 247.110500
19438 1 40.732500 32.586000 247.110500
19439 1 40.732500 35.301500 244.395000
19440 1 39.374750 33.943750 245.752750
19441 1 39.374750 36.659250 248.468250
19442 1 42.090250 33.943750 248.468250
19443 1 42.090250 36.659250 245.752750
19444 1 38.017000 32.586000 249.826000
19445 1 38.017000 35.301500 252.541500
19446 1 40.732500 32.586000 252.541500
19447 1 40.732500 35.301500 249.826000
19448 1 39.374750 33.943750 251.183750
19449 1 39.374750 36.659250 253.899250
19450 1 42.090250 33.943750 253.899250
19451 1 42.090250 36.659250 251.183750
19452 1 38.017000 32.586000 255.257000
19453 1 38.017000 35.301500 257.972500
19454 1 40.732500 32.586000 257.972500
19455 1 40.732500 35.301500 255.257000
19456 1 39.374750 33.943750 256.614750
19457 1 39.374750 36.659250 259.330250
19458 1 42.090250 33.943750 259.330250
19459 1 42.090250 36.659250 256.614750
19460 1 38.017000 38.017000 0.000000
19461 1 38.017000 40.732500 2.715500
19462 1 40.732500 38.017000 2.715500
19463 1 40.732500 40.732500 0.000000
19464 1 39.374750 39.374750 1.357750
19465 1 39.374750 42.090250 4.073250
19466 1 42.090250 39.374750 4.073250
19467 1 42.090250 42.090250 1.357750
19468 1 38.017000 38.017000 5.431000
19469 1 38.017000 40.732500 8.146500
19470 1 40.732500 38.017000 8.146500
19471 1 40.732500 40.732500 5.431000
19472 1 39.374750 39.374750 6.788750
19473 1 39.374750 42.090250 9.504250
19474 1 42.090250 39.374750 9.504250
19475 1 42.090250 42.090250 6.788750
19476 1 38.017000 38.017000 10.862000
19477 1 38.017000 40.732500 13.577500
19478 1 40.732500 38.017000 13.577500
19479 1 40.732500 40.732500 10.862000
19480 1 39.374750 39.374750 12.219750
19481 1 39.374750 42.090250 14.935250
19482 1 42.090250 39.374750 14.935250
19483 1 42.090250 42.090250 12.219750
19484 1 38.017000 38.017000 16.293000
19485 1 38.017000 40.732500 19.008500
19486 1 40.732500 38.017000 19.008500
19487 1 40.732500 40.732500 16.293000
19488 1 39.374750 39.374750 17.650750
19489 1 39.374750 42.090250 20.366250
19490 1 42.090250 39.374750 20.366250
19491 1 42.090250 42.090250 17.650750
19492 1 38.017000 38.017000 21.724000
19493 1 38.017000 40.732500 24.439500
19494 1 40.732500 38.017000 24.439500
19495 1 40.732500 40.732500 21.724000
19496 1 39.374750 39.374750 23.081750
19497 1 39.374750 42.090250 25.797250
19498 1 42.090250 39.374750 25.797250
19499 1 42.090250 42.090250 23.081750
19500 1 38.017000 38.017000 27.155000
19501 1 38.017000 40.732500 29.870500
19502 1 40.732500 38.017000 29.870500
19503 1 40.732500 40.732500 27.155000
19504 1 39.374750 39.374750 28.512750
19505 1 39.374750 42.090250 31.228250
19506 1 42.090250 39.374750 31.228250
19507 1 42.090250 42.090250 28.512750
19508 1 38.017000 38.017000 32.586000
19509 1 38.017000 40.732500 35.301500
19510 1 40.732500 38.017000 35.301500
19511 1 40.732500 40.732500 32.586000
19512 1 39.374750 39.374750 33.943750
19513 1 39.374750 42.090250 36.659250
19514 1 42.090250 39.374750 36.659250
19515 1 42.090250 42.090250 33.943750
19516 1 38.017000 38.017000 38.017000
19517 1 38.017000 40.732500 40.732500
19518 1 40.732500 38.017000 40.732500
19519 1 40.732500 40.732500 38.017000
19520 1 39.374750 39.374750 39.374750
19521 1 39.374750 42.090250 42.090250
19522 1 42.090250 39.374750 42.090250
19523 1 42.090250 42.090250 39.374750
19524 1 38.017000 38.017000 43.448000
19525 1 38.017000 40.732500 46.163500
19526 1 40.732500 38.017000 46.163500
19527 1 40.732500 40.732500 43.448000
19528 1 39.374750 39.374750 44.805750
19529 1 39.374750 42.090250 47.521250
19530 1 42.090250 39.374750 47.521250
19531 1 42.090250 42.090250 44.805750
19532 1 38.017000 38.017000 48.879000
19533 1 38.017000 40.732500 51.594500
19534 1 40.732500 38.017000 51.594500
19535 1 40.732500 40.732500 48.879000
19536 1 39.374750 39.374750 50.236750
19537 1 39.374750 42.090250 52.952250
19538 1 42.090250 39.374750 52.952250
19539 1 42.090250 42.090250 50.236750
19540 1 38.017000 38.017000 54.310000
19541 1 38.017000 40.732500 57.025500
19542 1 40.732500 38.017000 57.025500
19543 1 40.732500 40.732500 54.310000
19544 1 39.374750 39.374750 55.667750
19545 1 39.374750 42.090250 58.383250
19546 1 42.090250 39.374750 58.383250
19547 1 42.090250 42.090250 55.667750
19548 1 38.017000 38.017000 59.741000
19549 1 38.017000 40.732500 62.456500
19550 1 40.732500 38.017000 62.456500
19551 1 40.732500 40.732500 59.741000
19552 1 39.374750 39.374750 61.098750
19553 1 39.374750 42.090250 63.814250
19554 1 42.090250 39.374750 63.814250
19555 1 42.090250 42.090250 61.098750
19556 1 38.017000 38.017000 65.172000
19557 1 38.017000 40.732500 67.887500
19558 1 40.732500 38.017000 67.887500
19559 1 40.732500 40.732500 65.172000
19560 1 39.374750 39.374750 66.529750
19561 1 39.374750 42.090250 69.245250
19562 1 42.090250 39.374750 69.245250
19563 1 42.090250 42.090250 66.529750
19564 1 38.017000 38.017000 70.603000
19565 1 38.017000 40.732500 73.318500
19566 1 40.732500 38.017000 73.318500
19567 1 40.732500 40.732500 70.603000
19568 1 39.374750 39.374750 71.960750
19569 1 39.374750 42.090250 74.676250
19570 1 42.090250 39.374750 74.676250
19571 1 42.090250 42.090250 71.960750
19572 1 38.017000 38.017000 76.034000
19573 1 38.017000 40.732500 78.749500
19574 1 40.732500 38.017000 78.749500
19575 1 40.732500 40.732500 76.034000
19576 1 39.374750 39.374750 77.391750
19577 1 39.374750 42.090250 80.107250
19578 1 42.090250 39.374750 80.107250
19579 1 42.090250 42.090250 77.391750
19580 1 38.017000 38.017000 81.465000
19581 1 38.017000 40.732500 84.180500
19582 1 40.732500 38.017000 84.180500
19583 1 40.732500 40.732500 81.465000
19584 1 39.374750 39.374750 82.822750
19585 1 39.374750 42.090250 85.538250
19586 1 42.090250 39.374750 85.538250
19587 1 42.090250 42.090250 82.822750
19588 1 38.017000 38.017000 86.896000
19589 1 38.017000 40.732500 89.611500
19590 1 40.732500 38.017000 89.611500
19591 1 40.732500 40.732500 86.896000
19592 1 39.374750 39.374750 88.253750
19593 1 39.374750 42.090250 90.969250
19594 1 42.090250 39.374750 90.969250
19595 1 42.090250 42.090250 88.253750
19596 1 38.017000 38.017000 92.327000
19597 1 38.017000 40.732500 95.042500
19598 1 40.732500 38.017000 95.042500
19599 1 40.732500 40.732500 92.327000
19600 1 39.374750 39.374750 93.684750
19601 1 39.374750 42.090250 96.400250
19602 1 42.090250 39.374750 96.400250
19603 1 42.090250 42.090250 93.684750
19604 1 38.017000 38.017000 97.758000
19605 1 38.017000 40.732500 100.473500
19606 1 40.732500 38.017000 100.473500
19607 1 40.732500 40.732500 97.758000
19608 1 39.374750 39.374750 99.115750
19609 1 39.374750 42.090250 101.831250
19610 1 42.090250 39.374750 101.831250
19611 1 42.090250 42.090250 99.115750
19612 1 38.017000 38.017000 103.189000
19613 1 38.017000 40.732500 105.904500
19614 1 40.732500 38.017000 105.904500
19615 1 40.732500 40.732500 103.189000
19616 1 39.374750 39.374750 104.546750
19617 1 39.374750 42.090250 107.262250
19618 1 42.090250 39.374750 107.262250
19619 1 42.090250 42.090250 104.546750
19620 1 38.017000 38.017000 108.620000
19621 1 38.017000 40.732500 111.335500
19622 1 40.732500 38.017000 111.335500
19623 1 40.732500 40.732500 108.620000
19624 1 39.374750 39.374750 109.977750
19625 1 39.374750 42.090250 112.693250
19626 1 42.090250 39.374750 112.693250
19627 1 42.090250 42.090250 109.977750
19628 1 38.017000 38.017000 114.051000
19629 1 38.017000 40.732500 116.766500
19630 1 40.732500 38.017000 116.766500
19631 1 40.732500 40.732500 114.051000
19632 1 39.374750 39.374750 115.408750
19633 1 39.374750 42.090250 118.124250
19634 1 42.090250 39.374750 118.124250
19635 1 42.090250 42.090250 115.408750
19636 1 38.017000 38.017000 119.482000
19637 1 38.017000 40.732500 122.197500
19638 1 40.732500 38.017000 122.197500
19639 1 40.732500 40.732500 119.482000
19640 1 39.374750 39.374750 120.839750
19641 1 39.374750 42.090250 123.555250
19642 1 42.090250 39.374750 123.555250
19643 1 42.090250 42.090250 120.839750
19644 1 38.017000 38.017000 124.913000
19645 1 38.017000 40.732500 127.628500
19646 1 40.732500 38.017000 127.628500
19647 1 40.732500 40.732500 124.913000
19648 1 39.374750 39.374750 126.270750
19649 1 39.374750 42.090250 128.986250
19650 1 42.090250 39.374750 128.986250
19651 1 42.090250 42.090250 126.270750
19652 1 38.017000 38.017000 130.344000
19653 1 38.017000 40.732500 133.059500
19654 1 40.732500 38.017000 133.059500
19655 1 40.732500 40.732500 130.344000
19656 1 39.374750 39.374750 131.701750
19657 1 39.374750 42.090250 134.417250
19658 1 42.090250 39.374750 134.417250
19659 1 42.090250 42.090250 131.701750
19660 1 38.017000 38.017000 135.775000
19661 1 38.017000 40.732500 138.490500
19662 1 40.732500 38.017000 138.490500
19663 1 40.732500 40.732500 135.775000
19664 1 39.374750 39.374750 137.132750
19665 1 39.374750 42.090250 139.848250
19666 1 42.090250 39.374750 139.848250
19667 1 42.090250 42.090250 137.132750
19668 1 38.017000 38.017000 141.206000
19669 1 38.017000 40.732500 143.921500
19670 1 40.732500 38.017000 143.921500
19671 1 40.732500 40.732500 141.206000
19672 1 39.374750 39.374750 142.563750
19673 1 39.374750 42.090250 145.279250
19674 1 42.090250 39.374750 145.279250
19675 1 42.090250 42.090250 142.563750
19676 1 38.017000 38.017000 146.637000
19677 1 38.017000 40.732500 149.352500
19678 1 40.732500 38.017000 149.352500
19679 1 40.732500 40.732500 146.637000
19680 1 39.374750 39.374750 147.994750
19681 1 39.374750 42.090250 150.710250
19682 1 42.090250 39.374750 150.710250
19683 1 42.090250 42.090250 147.994750
19684 1 38.017000 38.017000 152.068000
19685 1 38.017000 40.732500 154.783500
19686 1 40.732500 38.017000 154.783500
19687 1 40.732500 40.732500 152.068000
19688 1 39.374750 39.374750 153.425750
19689 1 39.374750 42.090250 156.141250
19690 1 42.090250 39.374750 156.141250
19691 1 42.090250 42.090250 153.425750
19692 1 38.017000 38.017000 157.499000
19693 1 38.017000 40.732500 160.214500
19694 1 40.732500 38.017000 160.214500
19695 1 40.732500 40.732500 157.499000
19696 1 39.374750 39.374750 158.856750
19697 1 39.374750 42.090250 161.572250
19698 1 42.090250 39.374750 161.572250
19699 1 42.090250 42.090250 158.856750
19700 1 38.017000 38.017000 162.930000
19701 1 38.017000 40.732500 165.645500
19702 1 40.732500 38.017000 165.645500
19703 1 40.732500 40.732500 162.930000
19704 1 39.374750 39.374750 164.287750
19705 1 39.374750 42.090250 167.003250
19706 1 42.090250 39.374750 167.003250
19707 1 42.090250 42.090250 164.287750
19708 1 38.017000 38.017000 168.361000
19709 1 38.017000 40.732500 171.076500
19710 1 40.732500 38.017000 171.076500
19711 1 40.732500 40.732500 168.361000
19712 1 39.374750 39.374750 169.718750
19713 1 39.374750 42.090250 172.434250
19714 1 42.090250 39.374750 172.434250
19715 1 42.090250 42.090250 169.718750
19716 1 38.017000 38.017000 173.792000
19717 1 38.017000 40.732500 176.507500
19718 1 40.732500 38.017000 176.507500
19719 1 40.732500 40.732500 173.792000
19720 1 39.374750 39.374750 175.149750
19721 1 39.374750 42.090250 177.865250
19722 1 42.090250 39.374750 177.865250
19723 1 42.090250 42.090250 175.149750
19724 1 38.017000 38.017000 179.223000
19725 1 38.017000 40.732500 181.938500
19726 1 40.732500 38.017000 181.938500
19727 1 40.732500 40.732500 179.223000
19728 1 39.374750 39.374750 180.580750
19729 1 39.374750 42.090250 183.296250
19730 1 42.090250 39.374750 183.296250
19731 1 42.090250 42.090250 180.580750
19732 1 38.017000 38.017000 184.654000
19733 1 38.017000 40.732500 187.369500
19734 1 40.732500 38.017000 187.369500
19735 1 40.732500 40.732500 184.654000
19736 1 39.374750 39.374750 186.011750
19737 1 39.374750 42.090250 188.727250
19738 1 42.090250 39.374750 188.727250
19739 1 42.090250 42.090250 186.011750
19740 1 38.017000 38.017000 190.085000
19741 1 38.017000 40.732500 192.800500
19742 1 40.732500 38.017000 192.800500
19743 1 40.732500 40.732500 190.085000
19744 1 39.374750 39.374750 191.442750
19745 1 39.374750 42.090250 194.158250
19746 1 42.090250 39.374750 194.158250
19747 1 42.090250 42.090250 191.442750
19748 1 38.017000 38.017000 195.516000
19749 1 38.017000 40.732500 198.231500
19750 1 40.732500 38.017000 198.231500
19751 1 40.732500 40.732500 195.516000
19752 1 39.374750 39.374750 196.873750
19753 1 39.374750 42.090250 199.589250
19754 1 42.090250 39.374750 199.589250
19755 1 42.090250 42.090250 196.873750
19756 1 38.017000 38.017000 200.947000
19757 1 38.017000 40.732500 203.662500
19758 1 40.732500 38.017000 203.662500
19759 1 40.732500 40.732500 200.947000
19760 1 39.374750 39.374750 202.304750
19761 1 39.374750 42.090250 205.020250
19762 1 42.090250 39.374750 205.020250
19763 1 42.090250 42.090250 202.304750
19764 1 38.017000 38.017000 206.378000
19765 1 38.017000 40.732500 209.093500
19766 1 40.732500 38.017000 209.093500
19767 1 40.732500 40.732500 206.378000
19768 1 39.374750 39.374750 207.735750
19769 1 39.374750 42.090250 210.451250
19770 1 42.090250 39.374750 210.451250
19771 1 42.090250 42.090250 207.735750
19772 1 38.017000 38.017000 211.809000
19773 1 38.017000 40.732500 214.524500
19774 1 40.732500 38.017000 214.524500
19775 1 40.732500 40.732500 211.809000
19776 1 39.374750 39.374750 213.166750
19777 1 39.374750 42.090250 215.882250
19778 1 42.090250 39.374750 215.882250
19779 1 42.090250 42.090250 213.166750
19780 1 38.017000 38.017000 217.240000
19781 1 38.017000 40.732500 219.955500
19782 1 40.732500 38.017000 219.955500
19783 1 40.732500 40.732500 217.240000
19784 1 39.374750 39.374750 218.597750
19785 1 39.374750 42.090250 221.313250
19786 1 42.090250 39.374750 221.313250
19787 1 42.090250 42.090250 218.597750
19788 1 38.017000 38.017000 222.671000
19789 1 38.017000 40.732500 225.386500
19790 1 40.732500 38.017000 225.386500
19791 1 40.732500 40.732500 222.671000
19792 1 39.374750 39.374750 224.028750
19793 1 39.374750 42.090250 226.744250
19794 1 42.090250 39.374750 226.744250
19795 1 42.090250 42.090250 224.028750
19796 1 38.017000 38.017000 228.102000
19797 1 38.017000 40.732500 230.817500
19798 1 40.732500 38.017000 230.817500
19799 1 40.732500 40.732500 228.102000
19800 1 39.374750 39.374750 229.459750
19801 1 39.374750 42.090250 232.175250
19802 1 42.090250 39.374750 232.175250
19803 1 42.090250 42.090250 229.459750
19804 1 38.017000 38.017000 233.533000
19805 1 38.017000 40.732500 236.248500
19806 1 40.732500 38.017000 236.248500
19807 1 40.732500 40.732500 233.533000
19808 1 39.374750 39.374750 234.890750
19809 1 39.374750 42.090250 237.606250
19810 1 42.090250 39.374750 237.606250
19811 1 42.090250 42.090250 234.890750
19812 1 38.017000 38.017000 238.964000
19813 1 38.017000 40.732500 241.679500
19814 1 40.732500 38.017000 241.679500
19815 1 40.732500 40.732500 238.964000
19816 1 39.374750 39.374750 240.321750
19817 1 39.374750 42.090250 243.037250
19818 1 42.090250 39.374750 243.037250
19819 1 42.090250 42.090250 240.321750
19820 1 38.017000 38.017000 244.395000
19821 1 38.017000 40.732500 247.110500
19822 1 40.732500 38.017000 247.110500
19823 1 40.732500 40.732500 244.395000
19824 1 39.374750 39.374750 245.752750
19825 1 39.374750 42.090250 248.468250
19826 1 42.090250 39.374750 248.468250
19827 1 42.090250 42.090250 245.752750
19828 1 38.017000 38.017000 249.826000
19829 1 38.017000 40.732500 252.541500
19830 1 40.732500 38.017000 252.541500
19831 1 40.732500 40.732500 249.826000
19832 1 39.374750 39.374750 251.183750
19833 1 39.374750 42.090250 253.899250
19834 1 42.090250 39.374750 253.899250
19835 1 42.090250 42.090250 251.183750
19836 1 38.017000 38.017000 255.257000
19837 1 38.017000 40.732500 257.972500
19838 1 40.732500 38.017000 257.972500
19839 1 40.732500 40.732500 255.257000
19840 1 39.374750 39.374750 256.614750
19841 1 39.374750 42.090250 259.330250
19842 1 42.090250 39.374750 259.330250
19843 1 42.090250 42.090250 256.614750
